
include ${pot}.lmp
include kalj.lmp
units lj
atom_style atomic

variable dimensions equal 3
variable density equal 1.2
variable fraca equal 0.8

dimension ${dimensions}
dimension 3
read_restart ${prevbasename}.final.lmprestart.${steps}
read_restart equil/kalj_T0.475_n360_v300_30000000_1.final.lmprestart.${steps}
read_restart equil/kalj_T0.475_n360_v300_30000000_1.final.lmprestart.30000000
Reading restart file ...
  restart file = 15 Sep 2022, LAMMPS = 15 Sep 2022
WARNING: Restart file used different # of processors: 48 vs. 64 (src/read_restart.cpp:659)
  restoring atom style atomic from restart
  orthogonal box = (0 0 0) to (6.6943295 6.6943295 6.6943295)
  4 by 4 by 4 MPI processor grid
  restoring pair style lj/cut from restart
  360 atoms
  read_restart CPU = 0.044 seconds
include ${pot}_particles.lmp
include kalj_particles.lmp
mass * 1.0 #  set mass 1.0 for all types

pair_style lj/cut 2.5
#pair coeffs type1 type2 eps sigma
pair_coeff 1 1 1.0 1.00 2.5
pair_coeff 1 2 1.5 0.80 2.0
pair_coeff 2 2 0.5 0.88 2.2
pair_modify shift yes
reset_timestep 0

print "Setting up equilibration run"
Setting up equilibration run
variable dumptime2 equal ${steps}/2000
variable dumptime2 equal 30000000/2000
dump 1 all dcd ${dumptime2} ${basename}.unwrap.dcd
dump 1 all dcd 15000 ${basename}.unwrap.dcd
dump 1 all dcd 15000 prod/kalj_T0.475_n360_v300_prod_30000000_1.unwrap.dcd
#dump 2 all dcd ${dumptime2} ${basename}.dcd
dump_modify 1 unwrap yes
#dump_modify 2 unwrap no

restart ${restarttime} ${basename}.restart
restart 30000000 ${basename}.restart
restart 30000000 prod/kalj_T0.475_n360_v300_prod_30000000_1.restart
restart ${steps} ${basename}.final.lmprestart
restart 30000000 ${basename}.final.lmprestart
restart 30000000 prod/kalj_T0.475_n360_v300_prod_30000000_1.final.lmprestart

thermo ${thermotime}
thermo 300000
timestep ${timestep}
timestep 0.003

neighbor 0.5 bin
neigh_modify every 1 delay ${neighborstep} check yes
neigh_modify every 1 delay 25 check yes

#velocity all create ${temp} ${id} dist gaussian
fix 1 all nvt temp ${temp} ${temp} ${taut}
fix 1 all nvt temp 0.475 ${temp} ${taut}
fix 1 all nvt temp 0.475 0.475 ${taut}
fix 1 all nvt temp 0.475 0.475 0.3
Resetting global fix info from restart file:
  fix style: nvt, fix ID: 1

variable steps4 equal ${steps}/4
variable steps4 equal 30000000/4
run ${steps4}
run 7500000
Generated 0 of 1 mixed pair_coeff terms from geometric mixing rule
All restart file global fix info was re-assigned
Neighbor list info ...
  update: every = 1 steps, delay = 25 steps, check = yes
  max neighbors/atom: 2000, page size: 100000
  master list distance cutoff = 3
  ghost atom cutoff = 3
  binsize = 1.5, bins = 5 5 5
  1 neighbor lists, perpetual/occasional/extra = 1 0 0
  (1) pair lj/cut, perpetual
      attributes: half, newton on
      pair build: half/bin/atomonly/newton
      stencil: half/bin/3d
      bin: standard
Per MPI rank memory allocation (min/avg/max) = 2.981 | 2.981 | 2.981 Mbytes
   Step          Temp          E_pair         E_mol          TotEng         Press     
         0   0.48513088    -6.9423592      0             -6.2166842      3.4827692    
    300000   0.45712885    -6.9831984      0             -6.2994098      3.3622884    
    600000   0.5210906     -6.9835942      0             -6.2041295      3.3343794    
    900000   0.48319114    -6.9476955      0             -6.224922       3.4077125    
   1200000   0.48244133    -6.947181       0             -6.2255291      3.4433093    
   1500000   0.45686785    -6.8883454      0             -6.2049472      3.959778     
   1800000   0.48400204    -6.9805981      0             -6.2566118      3.3237438    
   2100000   0.48232862    -6.9545818      0             -6.2330986      3.4655939    
   2400000   0.43643052    -6.9034924      0             -6.250665       3.6623178    
   2700000   0.49124218    -6.9718519      0             -6.2370355      3.3435672    
   3000000   0.4760828     -6.9768752      0             -6.2647347      3.4030193    
   3300000   0.49405645    -7.0018991      0             -6.262873       3.1231528    
   3600000   0.46877649    -6.8981652      0             -6.1969537      3.8287572    
   3900000   0.46728759    -6.937752       0             -6.2387676      3.591476     
   4200000   0.47880631    -6.9707505      0             -6.254536       3.1564195    
   4500000   0.47679264    -7.0135752      0             -6.3003729      3.012892     
   4800000   0.49083819    -7.0023942      0             -6.2681821      3.089904     
   5100000   0.49059848    -6.9643364      0             -6.2304829      3.3053281    
   5400000   0.48891565    -6.8970129      0             -6.1656766      3.7860362    
   5700000   0.44427979    -6.891207       0             -6.2266385      3.8159865    
   6000000   0.49139336    -6.9622119      0             -6.2271694      3.5288228    
   6300000   0.47941886    -6.9295674      0             -6.2124367      3.592301     
   6600000   0.47695067    -6.9444245      0             -6.2309858      3.5586864    
   6900000   0.44449004    -6.9625715      0             -6.2976885      3.3262623    
   7200000   0.49515564    -6.9165557      0             -6.1758854      3.650596     
   7500000   0.46427663    -6.9191104      0             -6.22463        3.7191531    
Loop time of 413.733 on 64 procs for 7500000 steps with 360 atoms

Performance: 4698677.834 tau/day, 18127.615 timesteps/s, 6.526 Matom-step/s
99.7% CPU use with 64 MPI tasks x 1 OpenMP threads

MPI task timing breakdown:
Section |  min time  |  avg time  |  max time  |%varavg| %total
---------------------------------------------------------------
Pair    | 15.999     | 18.144     | 19.806     |  18.7 |  4.39
Neigh   | 2.6657     | 2.8747     | 3.0711     |   5.6 |  0.69
Comm    | 302.49     | 311.24     | 328.46     |  39.9 | 75.23
Output  | 0.12644    | 0.17396    | 0.23334    |   7.3 |  0.04
Modify  | 40.985     | 62.398     | 75.831     | 115.6 | 15.08
Other   |            | 18.9       |            |       |  4.57

Nlocal:          5.625 ave           8 max           3 min
Histogram: 2 0 8 0 15 0 27 0 11 1
Nghost:        533.078 ave         545 max         522 min
Histogram: 3 2 7 9 10 14 12 5 1 1
Neighs:        325.047 ave         497 max         171 min
Histogram: 4 0 11 8 11 12 10 3 4 1

Total # of neighbors = 20803
Ave neighs/atom = 57.786111
Neighbor list builds = 192463
Dangerous builds = 259
Total wall time: 0:06:53
