
include ${pot}.lmp
include kalj.lmp
units lj
atom_style atomic

variable dimensions equal 3
variable density equal 1.2
variable fraca equal 0.8

dimension ${dimensions}
dimension 3
read_restart ${prevbasename}.final.lmprestart.${steps}
read_restart equil/kalj_T1_n360_v300_50000_1.final.lmprestart.${steps}
read_restart equil/kalj_T1_n360_v300_50000_1.final.lmprestart.50000
Reading restart file ...
  restart file = 15 Sep 2022, LAMMPS = 15 Sep 2022
WARNING: Restart file used different # of processors: 48 vs. 64 (src/read_restart.cpp:659)
  restoring atom style atomic from restart
  orthogonal box = (0 0 0) to (6.6943295 6.6943295 6.6943295)
  4 by 4 by 4 MPI processor grid
  restoring pair style lj/cut from restart
  360 atoms
  read_restart CPU = 0.024 seconds
include ${pot}_particles.lmp
include kalj_particles.lmp
mass * 1.0 #  set mass 1.0 for all types

pair_style lj/cut 2.5
#pair coeffs type1 type2 eps sigma
pair_coeff 1 1 1.0 1.00 2.5
pair_coeff 1 2 1.5 0.80 2.0
pair_coeff 2 2 0.5 0.88 2.2
pair_modify shift yes
reset_timestep 0

print "Setting up equilibration run"
Setting up equilibration run
variable dumptime2 equal ${steps}/2000
variable dumptime2 equal 50000/2000
dump 1 all dcd ${dumptime2} ${basename}.unwrap.dcd
dump 1 all dcd 25 ${basename}.unwrap.dcd
dump 1 all dcd 25 prod/kalj_T1_n360_v300_prod_50000_1.unwrap.dcd
#dump 2 all dcd ${dumptime2} ${basename}.dcd
dump_modify 1 unwrap yes
#dump_modify 2 unwrap no

restart ${restarttime} ${basename}.restart
restart 30000 ${basename}.restart
restart 30000 prod/kalj_T1_n360_v300_prod_50000_1.restart
restart ${steps} ${basename}.final.lmprestart
restart 50000 ${basename}.final.lmprestart
restart 50000 prod/kalj_T1_n360_v300_prod_50000_1.final.lmprestart

thermo ${thermotime}
thermo 2000
timestep ${timestep}
timestep 0.002

neighbor 0.5 bin
neigh_modify every 1 delay ${neighborstep} check yes
neigh_modify every 1 delay 20 check yes

#velocity all create ${temp} ${id} dist gaussian
fix 1 all nvt temp ${temp} ${temp} ${taut}
fix 1 all nvt temp 1 ${temp} ${taut}
fix 1 all nvt temp 1 1 ${taut}
fix 1 all nvt temp 1 1 0.2
Resetting global fix info from restart file:
  fix style: nvt, fix ID: 1

variable steps4 equal ${steps}/4
variable steps4 equal 50000/4
run ${steps4}
run 12500
Generated 0 of 1 mixed pair_coeff terms from geometric mixing rule
All restart file global fix info was re-assigned
Neighbor list info ...
  update: every = 1 steps, delay = 20 steps, check = yes
  max neighbors/atom: 2000, page size: 100000
  master list distance cutoff = 3
  ghost atom cutoff = 3
  binsize = 1.5, bins = 5 5 5
  1 neighbor lists, perpetual/occasional/extra = 1 0 0
  (1) pair lj/cut, perpetual
      attributes: half, newton on
      pair build: half/bin/atomonly/newton
      stencil: half/bin/3d
      bin: standard
Per MPI rank memory allocation (min/avg/max) = 2.981 | 2.981 | 2.981 Mbytes
   Step          Temp          E_pair         E_mol          TotEng         Press     
         0   0.94158746    -6.0404593      0             -4.6320014      9.5842499    
      2000   1.0060435     -5.9572366      0             -4.4523631      10.192476    
      4000   0.95883418    -6.0346589      0             -4.6004028      9.6578631    
      6000   0.95673881    -5.9285347      0             -4.4974129      10.413741    
      8000   1.0773951     -5.9797502      0             -4.3681467      10.276525    
     10000   1.0057541     -6.0798228      0             -4.5753823      9.3713284    
     12000   1.0486477     -5.9505932      0             -4.3819911      10.296748    
     12500   0.97098528    -6.0501533      0             -4.5977212      9.7160144    
Loop time of 0.893618 on 64 procs for 12500 steps with 360 atoms

Performance: 2417139.711 tau/day, 13988.077 timesteps/s, 5.036 Matom-step/s
99.5% CPU use with 64 MPI tasks x 1 OpenMP threads

MPI task timing breakdown:
Section |  min time  |  avg time  |  max time  |%varavg| %total
---------------------------------------------------------------
Pair    | 0.027269   | 0.030637   | 0.035279   |   1.1 |  3.43
Neigh   | 0.0047316  | 0.005152   | 0.0057124  |   0.3 |  0.58
Comm    | 0.54984    | 0.58228    | 0.61943    |   2.1 | 65.16
Output  | 0.050725   | 0.090618   | 0.13942    |   8.8 | 10.14
Modify  | 0.083184   | 0.12213    | 0.14451    |   4.5 | 13.67
Other   |            | 0.0628     |            |       |  7.03

Nlocal:          5.625 ave           9 max           3 min
Histogram: 3 7 0 20 0 21 8 0 4 1
Nghost:        537.547 ave         554 max         520 min
Histogram: 4 5 4 5 6 18 10 6 3 3
Neighs:        324.625 ave         495 max         151 min
Histogram: 3 4 4 8 14 10 7 9 3 2

Total # of neighbors = 20776
Ave neighs/atom = 57.711111
Neighbor list builds = 337
Dangerous builds = 0
Total wall time: 0:00:00
