
include ${pot}.lmp
include kalj.lmp
units lj
atom_style atomic

variable dimensions equal 3
variable density equal 1.2
variable fraca equal 0.8

dimension ${dimensions}
dimension 3
read_restart ${prevbasename}.final.lmprestart.${steps}
read_restart equil/kalj_T0.7_n360_v300_180000_1.final.lmprestart.${steps}
read_restart equil/kalj_T0.7_n360_v300_180000_1.final.lmprestart.180000
Reading restart file ...
  restart file = 15 Sep 2022, LAMMPS = 15 Sep 2022
WARNING: Restart file used different # of processors: 48 vs. 64 (src/read_restart.cpp:659)
  restoring atom style atomic from restart
  orthogonal box = (0 0 0) to (6.6943295 6.6943295 6.6943295)
  4 by 4 by 4 MPI processor grid
  restoring pair style lj/cut from restart
  360 atoms
  read_restart CPU = 0.023 seconds
include ${pot}_particles.lmp
include kalj_particles.lmp
mass * 1.0 #  set mass 1.0 for all types

pair_style lj/cut 2.5
#pair coeffs type1 type2 eps sigma
pair_coeff 1 1 1.0 1.00 2.5
pair_coeff 1 2 1.5 0.80 2.0
pair_coeff 2 2 0.5 0.88 2.2
pair_modify shift yes
reset_timestep 0

print "Setting up equilibration run"
Setting up equilibration run
variable dumptime2 equal ${steps}/2000
variable dumptime2 equal 180000/2000
dump 1 all dcd ${dumptime2} ${basename}.unwrap.dcd
dump 1 all dcd 90 ${basename}.unwrap.dcd
dump 1 all dcd 90 prod/kalj_T0.7_n360_v300_prod_180000_1.unwrap.dcd
#dump 2 all dcd ${dumptime2} ${basename}.dcd
dump_modify 1 unwrap yes
#dump_modify 2 unwrap no

restart ${restarttime} ${basename}.restart
restart 180000 ${basename}.restart
restart 180000 prod/kalj_T0.7_n360_v300_prod_180000_1.restart
restart ${steps} ${basename}.final.lmprestart
restart 180000 ${basename}.final.lmprestart
restart 180000 prod/kalj_T0.7_n360_v300_prod_180000_1.final.lmprestart

thermo ${thermotime}
thermo 6000
timestep ${timestep}
timestep 0.003

neighbor 0.5 bin
neigh_modify every 1 delay ${neighborstep} check yes
neigh_modify every 1 delay 25 check yes

#velocity all create ${temp} ${id} dist gaussian
fix 1 all nvt temp ${temp} ${temp} ${taut}
fix 1 all nvt temp 0.7 ${temp} ${taut}
fix 1 all nvt temp 0.7 0.7 ${taut}
fix 1 all nvt temp 0.7 0.7 0.3
Resetting global fix info from restart file:
  fix style: nvt, fix ID: 1

variable steps4 equal ${steps}/4
variable steps4 equal 180000/4
run ${steps4}
run 45000
Generated 0 of 1 mixed pair_coeff terms from geometric mixing rule
All restart file global fix info was re-assigned
Neighbor list info ...
  update: every = 1 steps, delay = 25 steps, check = yes
  max neighbors/atom: 2000, page size: 100000
  master list distance cutoff = 3
  ghost atom cutoff = 3
  binsize = 1.5, bins = 5 5 5
  1 neighbor lists, perpetual/occasional/extra = 1 0 0
  (1) pair lj/cut, perpetual
      attributes: half, newton on
      pair build: half/bin/atomonly/newton
      stencil: half/bin/3d
      bin: standard
Per MPI rank memory allocation (min/avg/max) = 2.981 | 2.981 | 2.981 Mbytes
   Step          Temp          E_pair         E_mol          TotEng         Press     
         0   0.62997643    -6.5574449      0             -5.6151051      6.0272861    
      6000   0.670546      -6.4061573      0             -5.4031323      7.0594222    
     12000   0.75846438    -6.4867382      0             -5.3522019      6.6171476    
     18000   0.67330361    -6.5984375      0             -5.5912875      5.8357992    
     24000   0.72093535    -6.5051414      0             -5.4267423      6.2774297    
     30000   0.69954287    -6.5128888      0             -5.4664893      6.6353624    
     36000   0.74663762    -6.556343       0             -5.4394976      6.1336272    
     42000   0.6566412     -6.4894958      0             -5.50727        6.5949964    
     45000   0.71202406    -6.6137949      0             -5.5487256      6.0173306    
Loop time of 2.66142 on 64 procs for 45000 steps with 360 atoms

Performance: 4382615.334 tau/day, 16908.238 timesteps/s, 6.087 Matom-step/s
99.7% CPU use with 64 MPI tasks x 1 OpenMP threads

MPI task timing breakdown:
Section |  min time  |  avg time  |  max time  |%varavg| %total
---------------------------------------------------------------
Pair    | 0.097497   | 0.11085    | 0.12411    |   1.9 |  4.16
Neigh   | 0.020669   | 0.022171   | 0.023897   |   0.5 |  0.83
Comm    | 1.8713     | 1.959      | 2.0614     |   3.5 | 73.61
Output  | 0.06786    | 0.11019    | 0.1622     |   8.4 |  4.14
Modify  | 0.25663    | 0.38004    | 0.46457    |   8.6 | 14.28
Other   |            | 0.07922    |            |       |  2.98

Nlocal:          5.625 ave           9 max           3 min
Histogram: 1 10 0 20 0 20 8 0 4 1
Nghost:        538.297 ave         551 max         527 min
Histogram: 5 2 10 9 6 16 4 7 2 3
Neighs:        324.672 ave         514 max         180 min
Histogram: 3 7 8 11 13 9 6 3 3 1

Total # of neighbors = 20779
Ave neighs/atom = 57.719444
Neighbor list builds = 1479
Dangerous builds = 106
Total wall time: 0:00:02
