
include ${pot}.lmp
include kalj.lmp
units lj
atom_style atomic

variable dimensions equal 3
variable density equal 1.2
variable fraca equal 0.8

dimension ${dimensions}
dimension 3
read_restart ${prevbasename}.final.lmprestart.${steps}
read_restart equil/kalj_T0.45_n360_v300_100000000_1.final.lmprestart.${steps}
read_restart equil/kalj_T0.45_n360_v300_100000000_1.final.lmprestart.100000000
Reading restart file ...
  restart file = 15 Sep 2022, LAMMPS = 15 Sep 2022
WARNING: Restart file used different # of processors: 48 vs. 64 (src/read_restart.cpp:659)
  restoring atom style atomic from restart
  orthogonal box = (0 0 0) to (6.6943295 6.6943295 6.6943295)
  4 by 4 by 4 MPI processor grid
  restoring pair style lj/cut from restart
  360 atoms
  read_restart CPU = 0.014 seconds
include ${pot}_particles.lmp
include kalj_particles.lmp
mass * 1.0 #  set mass 1.0 for all types

pair_style lj/cut 2.5
#pair coeffs type1 type2 eps sigma
pair_coeff 1 1 1.0 1.00 2.5
pair_coeff 1 2 1.5 0.80 2.0
pair_coeff 2 2 0.5 0.88 2.2
pair_modify shift yes
reset_timestep 0

print "Setting up equilibration run"
Setting up equilibration run
variable dumptime2 equal ${steps}/2000
variable dumptime2 equal 100000000/2000
dump 1 all dcd ${dumptime2} ${basename}.unwrap.dcd
dump 1 all dcd 50000 ${basename}.unwrap.dcd
dump 1 all dcd 50000 prod/kalj_T0.45_n360_v300_prod_100000000_1.unwrap.dcd
#dump 2 all dcd ${dumptime2} ${basename}.dcd
dump_modify 1 unwrap yes
#dump_modify 2 unwrap no

restart ${restarttime} ${basename}.restart
restart 100000000 ${basename}.restart
restart 100000000 prod/kalj_T0.45_n360_v300_prod_100000000_1.restart
restart ${steps} ${basename}.final.lmprestart
restart 100000000 ${basename}.final.lmprestart
restart 100000000 prod/kalj_T0.45_n360_v300_prod_100000000_1.final.lmprestart

thermo ${thermotime}
thermo 1000000
timestep ${timestep}
timestep 0.003

neighbor 0.5 bin
neigh_modify every 1 delay ${neighborstep} check yes
neigh_modify every 1 delay 25 check yes

#velocity all create ${temp} ${id} dist gaussian
fix 1 all nvt temp ${temp} ${temp} ${taut}
fix 1 all nvt temp 0.45 ${temp} ${taut}
fix 1 all nvt temp 0.45 0.45 ${taut}
fix 1 all nvt temp 0.45 0.45 0.3
Resetting global fix info from restart file:
  fix style: nvt, fix ID: 1

variable steps4 equal ${steps}/4
variable steps4 equal 100000000/4
run ${steps4}
run 25000000
Generated 0 of 1 mixed pair_coeff terms from geometric mixing rule
All restart file global fix info was re-assigned
Neighbor list info ...
  update: every = 1 steps, delay = 25 steps, check = yes
  max neighbors/atom: 2000, page size: 100000
  master list distance cutoff = 3
  ghost atom cutoff = 3
  binsize = 1.5, bins = 5 5 5
  1 neighbor lists, perpetual/occasional/extra = 1 0 0
  (1) pair lj/cut, perpetual
      attributes: half, newton on
      pair build: half/bin/atomonly/newton
      stencil: half/bin/3d
      bin: standard
Per MPI rank memory allocation (min/avg/max) = 2.981 | 2.981 | 2.981 Mbytes
   Step          Temp          E_pair         E_mol          TotEng         Press     
         0   0.44666927    -7.0268641      0             -6.3587213      3.0126553    
   1000000   0.42574777    -7.040821       0             -6.4039733      2.9877579    
   2000000   0.43060072    -7.0435004      0             -6.3993935      2.8422358    
   3000000   0.44394947    -7.012347       0             -6.3482726      2.952749     
   4000000   0.42108307    -7.0154503      0             -6.3855802      2.8971912    
   5000000   0.46341959    -6.9917856      0             -6.2985871      3.3473511    
   6000000   0.44330747    -6.9732444      0             -6.3101303      3.2935057    
   7000000   0.44537138    -6.9828919      0             -6.3166905      3.2512424    
   8000000   0.45614883    -7.0088264      0             -6.3265038      3.148129     
   9000000   0.43339495    -6.9505955      0             -6.3023089      3.373387     
  10000000   0.44665716    -7.027734       0             -6.3596093      2.7768277    
  11000000   0.45008622    -6.9791665      0             -6.3059125      3.2655707    
  12000000   0.4396021     -7.0459811      0             -6.3884096      2.8514701    
  13000000   0.41672451    -7.041522       0             -6.4181716      2.8964264    
  14000000   0.44751861    -7.0294128      0             -6.3599995      3.0029191    
  15000000   0.44534567    -6.9920276      0             -6.3258647      3.2427147    
  16000000   0.44934822    -7.0754679      0             -6.4033179      2.6908222    
  17000000   0.47922082    -7.1008261      0             -6.3839916      2.5183866    
  18000000   0.4313422     -7.0522052      0             -6.4069891      2.6872172    
  19000000   0.45958435    -6.9952774      0             -6.3078158      3.187272     
  20000000   0.46018453    -7.0324251      0             -6.3440657      2.8629529    
  21000000   0.43962321    -6.9773095      0             -6.3197064      3.0144321    
  22000000   0.43715157    -6.9790958      0             -6.32519        3.2846103    
  23000000   0.43428729    -6.9787055      0             -6.3290841      3.3576311    
  24000000   0.48486348    -6.9498762      0             -6.2246013      3.5359832    
  25000000   0.45613141    -7.0775261      0             -6.3952295      2.5208212    
Loop time of 1379.92 on 64 procs for 25000000 steps with 360 atoms

Performance: 4695917.891 tau/day, 18116.967 timesteps/s, 6.522 Matom-step/s
99.7% CPU use with 64 MPI tasks x 1 OpenMP threads

MPI task timing breakdown:
Section |  min time  |  avg time  |  max time  |%varavg| %total
---------------------------------------------------------------
Pair    | 51.918     | 60.523     | 66.884     |  44.9 |  4.39
Neigh   | 8.3074     | 9.2458     | 9.8957     |  11.3 |  0.67
Comm    | 1007.7     | 1037.5     | 1089.2     |  69.4 | 75.19
Output  | 0.13238    | 0.17943    | 0.23935    |   7.1 |  0.01
Modify  | 142.69     | 205.64     | 250.87     | 189.4 | 14.90
Other   |            | 66.82      |            |       |  4.84

Nlocal:          5.625 ave           9 max           3 min
Histogram: 2 13 0 13 0 20 12 0 3 1
Nghost:        542.516 ave         560 max         529 min
Histogram: 2 7 9 14 8 10 5 6 0 3
Neighs:        325.422 ave         519 max         173 min
Histogram: 5 8 6 8 11 10 7 5 2 2

Total # of neighbors = 20827
Ave neighs/atom = 57.852778
Neighbor list builds = 618011
Dangerous builds = 366
Total wall time: 0:22:59
