
include ${pot}.lmp
include kalj.lmp
units lj
atom_style atomic

variable dimensions equal 3
variable density equal 1.2
variable fraca equal 0.8

dimension ${dimensions}
dimension 3
read_restart ${prevbasename}.final.lmprestart.${prevsteps}
read_restart equil/kalj_T0.55_n360_v300_3000000_1.final.lmprestart.${prevsteps}
read_restart equil/kalj_T0.55_n360_v300_3000000_1.final.lmprestart.3000000
Reading restart file ...
  restart file = 15 Sep 2022, LAMMPS = 15 Sep 2022
  restoring atom style atomic from restart
  orthogonal box = (0 0 0) to (6.6943295 6.6943295 6.6943295)
  3 by 4 by 4 MPI processor grid
  restoring pair style lj/cut from restart
  360 atoms
  read_restart CPU = 0.050 seconds
include ${pot}_particles.lmp
include kalj_particles.lmp
mass * 1.0 #  set mass 1.0 for all types

pair_style lj/cut 2.5
#pair coeffs type1 type2 eps sigma
pair_coeff 1 1 1.0 1.00 2.5
pair_coeff 1 2 1.5 0.80 2.0
pair_coeff 2 2 0.5 0.88 2.2
pair_modify shift yes
reset_timestep 0

print "Setting up annealing run"
Setting up annealing run
dump 1 all atom ${dumptime} ${basename}.lammpstrj
dump 1 all atom 1000000 ${basename}.lammpstrj
dump 1 all atom 1000000 equil/kalj_T0.5_n360_v300_10000000_1.lammpstrj
#dump_modify 1 sort id scale no

restart ${restarttime} ${basename}.restart
restart 10000000 ${basename}.restart
restart 10000000 equil/kalj_T0.5_n360_v300_10000000_1.restart
restart ${steps} ${basename}.final.lmprestart
restart 10000000 ${basename}.final.lmprestart
restart 10000000 equil/kalj_T0.5_n360_v300_10000000_1.final.lmprestart

thermo ${thermotime}
thermo 100000
timestep ${timestep}
timestep 0.003

neighbor 0.5 bin
neigh_modify every 1 delay ${neighborstep} check yes
neigh_modify every 1 delay 25 check yes

velocity all create ${temp} ${id} dist gaussian
velocity all create 0.5 ${id} dist gaussian
velocity all create 0.5 1 dist gaussian
fix 1 all nvt temp ${temp} ${temp} ${taut}
fix 1 all nvt temp 0.5 ${temp} ${taut}
fix 1 all nvt temp 0.5 0.5 ${taut}
fix 1 all nvt temp 0.5 0.5 0.3
Resetting global fix info from restart file:
  fix style: nvt, fix ID: 1
run ${steps}
run 10000000
Generated 0 of 1 mixed pair_coeff terms from geometric mixing rule
All restart file global fix info was re-assigned
Neighbor list info ...
  update: every = 1 steps, delay = 25 steps, check = yes
  max neighbors/atom: 2000, page size: 100000
  master list distance cutoff = 3
  ghost atom cutoff = 3
  binsize = 1.5, bins = 5 5 5
  1 neighbor lists, perpetual/occasional/extra = 1 0 0
  (1) pair lj/cut, perpetual
      attributes: half, newton on
      pair build: half/bin/atomonly/newton
      stencil: half/bin/3d
      bin: standard
Per MPI rank memory allocation (min/avg/max) = 3.961 | 3.961 | 3.961 Mbytes
   Step          Temp          E_pair         E_mol          TotEng         Press     
         0   0.5           -6.7875588      0             -6.0396421      4.4894135    
    100000   0.48530672    -6.9728801      0             -6.2469421      3.583043     
    200000   0.47821778    -6.8784749      0             -6.1631408      3.8603445    
    300000   0.50139646    -6.8619738      0             -6.1119683      3.9636445    
    400000   0.4929926     -6.8869963      0             -6.1495616      3.8583069    
    500000   0.47795412    -6.8997804      0             -6.1848407      3.6428287    
    600000   0.48456525    -6.8702141      0             -6.1453852      3.891364     
    700000   0.52195814    -6.9083967      0             -6.1276343      3.8333974    
    800000   0.48955096    -6.9002827      0             -6.1679961      3.8694773    
    900000   0.49975234    -6.8295592      0             -6.082013       4.2994519    
   1000000   0.5249258     -6.8479077      0             -6.0627062      4.2568326    
   1100000   0.56349643    -6.8564766      0             -6.0135798      4.1571022    
   1200000   0.50830049    -6.8950131      0             -6.1346803      3.8682741    
   1300000   0.50583869    -6.8478831      0             -6.0912327      4.2989977    
   1400000   0.49242759    -6.8901763      0             -6.1535867      3.980418     
   1500000   0.54303903    -6.9213534      0             -6.1090575      3.778786     
   1600000   0.49274586    -6.9117576      0             -6.174692       3.8830845    
   1700000   0.53171427    -6.812178       0             -6.0168221      4.3561491    
   1800000   0.48259413    -6.8881053      0             -6.1662249      3.8425485    
   1900000   0.51164173    -6.960129       0             -6.1947982      3.3872549    
   2000000   0.50327369    -6.9750798      0             -6.2222662      3.3090134    
   2100000   0.47820232    -6.9745438      0             -6.2592328      3.4093789    
   2200000   0.46492152    -6.9383789      0             -6.2429338      3.3986761    
   2300000   0.52975929    -6.9297361      0             -6.1373045      3.696097     
   2400000   0.52120755    -6.8495737      0             -6.0699341      4.1464004    
   2500000   0.500955      -6.9421518      0             -6.1928066      3.6732595    
   2600000   0.48320709    -6.9278267      0             -6.2050295      3.6643703    
   2700000   0.48870146    -6.9295407      0             -6.1985248      3.5785888    
   2800000   0.51885184    -6.9372764      0             -6.1611605      3.6006427    
   2900000   0.52171464    -6.8202932      0             -6.039895       4.3306005    
   3000000   0.50087889    -6.8774257      0             -6.1281943      3.9115477    
   3100000   0.47681723    -6.9056668      0             -6.1924277      3.7709582    
   3200000   0.49744323    -6.9383661      0             -6.194274       3.4592649    
   3300000   0.50628318    -6.900708       0             -6.1433927      3.7824674    
   3400000   0.52682321    -6.8734454      0             -6.0854057      4.1281444    
   3500000   0.56063359    -6.9154149      0             -6.0768005      3.8444876    
   3600000   0.51178179    -6.9289351      0             -6.1633948      3.7603609    
   3700000   0.50474538    -6.9008327      0             -6.1458178      3.7735858    
   3800000   0.47067587    -6.8849316      0             -6.180879       3.8323027    
   3900000   0.52328577    -6.9140247      0             -6.1312764      3.7514944    
   4000000   0.47767393    -6.9321791      0             -6.2176586      3.3749029    
   4100000   0.47121733    -6.9007946      0             -6.195932       3.8670343    
   4200000   0.49567039    -6.874607       0             -6.1331667      3.8896977    
   4300000   0.49346807    -6.9517325      0             -6.2135865      3.4851442    
   4400000   0.44817707    -6.8745787      0             -6.2041805      4.0327969    
   4500000   0.48297799    -6.8718687      0             -6.1494142      3.7764436    
   4600000   0.5023869     -6.9670753      0             -6.2155882      3.4771077    
   4700000   0.53227547    -6.9008047      0             -6.1046093      3.8609357    
   4800000   0.49644693    -6.933453       0             -6.1908511      3.59024      
   4900000   0.49003068    -6.8384169      0             -6.1054127      4.1393928    
   5000000   0.47363745    -6.944281       0             -6.2357984      3.327909     
   5100000   0.50430042    -6.9384215      0             -6.1840722      3.6709339    
   5200000   0.48201472    -6.8705589      0             -6.1495452      4.0233926    
   5300000   0.52253831    -6.9268935      0             -6.1452633      3.7009294    
   5400000   0.4786814     -6.8710279      0             -6.1550003      3.9664756    
   5500000   0.52348058    -6.9066673      0             -6.1236276      3.8100348    
   5600000   0.50322457    -6.8635311      0             -6.110791       4.0731294    
   5700000   0.52871782    -6.9408952      0             -6.1500214      3.612283     
   5800000   0.51510756    -6.916802       0             -6.146287       3.7974662    
   5900000   0.51259058    -6.9016726      0             -6.1349225      4.0529263    
   6000000   0.47456819    -6.920404       0             -6.210529       3.5809996    
   6100000   0.50634026    -6.8734803      0             -6.1160797      4.1858548    
   6200000   0.51730571    -6.8258933      0             -6.0520901      4.4709021    
   6300000   0.50461612    -6.9049678      0             -6.1501462      3.8041822    
   6400000   0.52031944    -6.8899518      0             -6.1116406      3.9006038    
   6500000   0.5352383     -6.8759246      0             -6.0752973      3.926389     
   6600000   0.5072333     -6.9007897      0             -6.1420533      3.9032267    
   6700000   0.51141011    -6.8678097      0             -6.1028254      3.8647612    
   6800000   0.48022037    -6.9117638      0             -6.1934342      3.6582131    
   6900000   0.50271089    -6.865729       0             -6.1137573      3.9462833    
   7000000   0.49915102    -6.8926425      0             -6.1459958      3.7826638    
   7100000   0.49529533    -6.9026062      0             -6.161727       3.7901185    
   7200000   0.50133187    -6.8730594      0             -6.1231505      4.0139255    
   7300000   0.48205523    -6.9148354      0             -6.1937612      3.821492     
   7400000   0.51626041    -6.8937225      0             -6.121483       3.8479719    
   7500000   0.49807068    -6.8411158      0             -6.0960851      4.2304956    
   7600000   0.49745953    -6.8836144      0             -6.1394979      3.9798636    
   7700000   0.5120109     -6.9195822      0             -6.1536992      3.6296339    
   7800000   0.46046203    -6.9023617      0             -6.2135872      3.686313     
   7900000   0.52292541    -6.8749582      0             -6.0927489      3.9282854    
   8000000   0.48241834    -6.9248544      0             -6.203237       3.6696616    
   8100000   0.50769701    -6.8785898      0             -6.1191597      4.1237268    
   8200000   0.49277354    -6.8588916      0             -6.1217845      4.0341613    
   8300000   0.51741523    -6.833712       0             -6.059745       4.456567     
   8400000   0.48816126    -6.9272625      0             -6.1970546      3.6631184    
   8500000   0.52625711    -6.9353333      0             -6.1481403      3.6467405    
   8600000   0.4867284     -6.9519308      0             -6.2238662      3.570836     
   8700000   0.53857396    -6.9624885      0             -6.1568716      3.5404534    
   8800000   0.48607028    -6.9004814      0             -6.1734012      3.8073129    
   8900000   0.50829594    -6.8727564      0             -6.1124303      3.9465195    
   9000000   0.5075777     -6.8692447      0             -6.1099931      4.0035017    
   9100000   0.50742727    -6.8524409      0             -6.0934142      4.0982219    
   9200000   0.49918172    -6.9044432      0             -6.1577506      3.9317485    
   9300000   0.5353386     -6.9521683      0             -6.151391       3.3759518    
   9400000   0.53920572    -6.9033385      0             -6.0967766      3.8176104    
   9500000   0.48423125    -6.9091187      0             -6.1847895      3.6733053    
   9600000   0.46812313    -6.9452777      0             -6.2450435      3.4962138    
   9700000   0.51031378    -6.9131451      0             -6.1498008      3.7250833    
   9800000   0.47971979    -6.9402085      0             -6.2226276      3.4093015    
   9900000   0.53546293    -6.854074       0             -6.0531107      4.0509943    
  10000000   0.52723295    -6.8712569      0             -6.0826043      4.0423733    
Loop time of 477.286 on 48 procs for 10000000 steps with 360 atoms

Performance: 5430711.037 tau/day, 20951.817 timesteps/s, 7.543 Matom-step/s
99.6% CPU use with 48 MPI tasks x 1 OpenMP threads

MPI task timing breakdown:
Section |  min time  |  avg time  |  max time  |%varavg| %total
---------------------------------------------------------------
Pair    | 30.668     | 32.193     | 35.269     |  16.6 |  6.75
Neigh   | 4.7653     | 4.9494     | 5.5823     |   6.4 |  1.04
Comm    | 353.86     | 363.85     | 377.03     |  32.4 | 76.23
Output  | 0.02525    | 0.025418   | 0.031898   |   0.6 |  0.01
Modify  | 48.514     | 60.011     | 71.05      |  81.1 | 12.57
Other   |            | 16.26      |            |       |  3.41

Nlocal:            7.5 ave          11 max           5 min
Histogram: 3 5 0 18 0 13 6 0 2 1
Nghost:        578.854 ave         589 max         567 min
Histogram: 1 2 4 4 6 14 4 8 1 4
Neighs:        433.354 ave         625 max         261 min
Histogram: 2 2 6 7 6 12 6 5 1 1

Total # of neighbors = 20801
Ave neighs/atom = 57.780556
Neighbor list builds = 265687
Dangerous builds = 616
Total wall time: 0:07:57
