
include ${pot}.lmp
include kalj.lmp
units lj
atom_style atomic

variable dimensions equal 3
variable density equal 1.2
variable fraca equal 0.8

dimension ${dimensions}
dimension 3
read_restart ${prevbasename}.final.lmprestart.${prevsteps}
read_restart equil/kalj_T0.6_n360_v300_1000000_1.final.lmprestart.${prevsteps}
read_restart equil/kalj_T0.6_n360_v300_1000000_1.final.lmprestart.1000000
Reading restart file ...
  restart file = 15 Sep 2022, LAMMPS = 15 Sep 2022
  restoring atom style atomic from restart
  orthogonal box = (0 0 0) to (6.6943295 6.6943295 6.6943295)
  3 by 4 by 4 MPI processor grid
  restoring pair style lj/cut from restart
  360 atoms
  read_restart CPU = 0.043 seconds
include ${pot}_particles.lmp
include kalj_particles.lmp
mass * 1.0 #  set mass 1.0 for all types

pair_style lj/cut 2.5
#pair coeffs type1 type2 eps sigma
pair_coeff 1 1 1.0 1.00 2.5
pair_coeff 1 2 1.5 0.80 2.0
pair_coeff 2 2 0.5 0.88 2.2
pair_modify shift yes
reset_timestep 0

print "Setting up annealing run"
Setting up annealing run
dump 1 all atom ${dumptime} ${basename}.lammpstrj
dump 1 all atom 300000 ${basename}.lammpstrj
dump 1 all atom 300000 equil/kalj_T0.55_n360_v300_3000000_1.lammpstrj
#dump_modify 1 sort id scale no

restart ${restarttime} ${basename}.restart
restart 3000000 ${basename}.restart
restart 3000000 equil/kalj_T0.55_n360_v300_3000000_1.restart
restart ${steps} ${basename}.final.lmprestart
restart 3000000 ${basename}.final.lmprestart
restart 3000000 equil/kalj_T0.55_n360_v300_3000000_1.final.lmprestart

thermo ${thermotime}
thermo 30000
timestep ${timestep}
timestep 0.003

neighbor 0.5 bin
neigh_modify every 1 delay ${neighborstep} check yes
neigh_modify every 1 delay 25 check yes

velocity all create ${temp} ${id} dist gaussian
velocity all create 0.55 ${id} dist gaussian
velocity all create 0.55 1 dist gaussian
fix 1 all nvt temp ${temp} ${temp} ${taut}
fix 1 all nvt temp 0.55 ${temp} ${taut}
fix 1 all nvt temp 0.55 0.55 ${taut}
fix 1 all nvt temp 0.55 0.55 0.3
Resetting global fix info from restart file:
  fix style: nvt, fix ID: 1
run ${steps}
run 3000000
Generated 0 of 1 mixed pair_coeff terms from geometric mixing rule
All restart file global fix info was re-assigned
Neighbor list info ...
  update: every = 1 steps, delay = 25 steps, check = yes
  max neighbors/atom: 2000, page size: 100000
  master list distance cutoff = 3
  ghost atom cutoff = 3
  binsize = 1.5, bins = 5 5 5
  1 neighbor lists, perpetual/occasional/extra = 1 0 0
  (1) pair lj/cut, perpetual
      attributes: half, newton on
      pair build: half/bin/atomonly/newton
      stencil: half/bin/3d
      bin: standard
Per MPI rank memory allocation (min/avg/max) = 3.961 | 3.961 | 3.961 Mbytes
   Step          Temp          E_pair         E_mol          TotEng         Press     
         0   0.55          -6.6683433      0             -5.8456349      5.1266065    
     30000   0.4974234     -6.7448004      0             -6.0007379      4.7433347    
     60000   0.56939009    -6.7480901      0             -5.8963774      4.8568967    
     90000   0.53167411    -6.7676434      0             -5.9723475      4.6785039    
    120000   0.56507899    -6.8378998      0             -5.9926358      4.4293113    
    150000   0.53268705    -6.8675465      0             -6.0707355      4.1500684    
    180000   0.58135303    -6.8679927      0             -5.9983855      4.0991369    
    210000   0.54870214    -6.8040217      0             -5.9832548      4.4013726    
    240000   0.53851114    -6.7979784      0             -5.9924555      4.4395113    
    270000   0.56018021    -6.7707745      0             -5.9328383      4.7182597    
    300000   0.54596806    -6.8568058      0             -6.0401286      3.9856321    
    330000   0.57348864    -6.7776951      0             -5.9198517      4.4482       
    360000   0.5438871     -6.8312068      0             -6.0176424      4.343442     
    390000   0.58274821    -6.853203       0             -5.9815088      4.1908476    
    420000   0.58688926    -6.9140674      0             -6.0361789      3.8913181    
    450000   0.53119123    -6.8244336      0             -6.0298601      4.1778311    
    480000   0.54256905    -6.7839376      0             -5.9723447      4.7314129    
    510000   0.5775836     -6.83714        0             -5.9731712      4.3649816    
    540000   0.57046805    -6.7939127      0             -5.9405875      4.5691367    
    570000   0.55561824    -6.8204417      0             -5.9893294      4.2423176    
    600000   0.51551421    -6.7205195      0             -5.9493962      5.0065989    
    630000   0.58652991    -6.8151679      0             -5.937817       4.3655187    
    660000   0.58699834    -6.8137305      0             -5.9356788      4.5560503    
    690000   0.5824883     -6.7654882      0             -5.8941828      4.6749354    
    720000   0.5668281     -6.8022869      0             -5.9544065      4.4954649    
    750000   0.55162774    -6.7806555      0             -5.9555124      4.5243192    
    780000   0.55661157    -6.8028632      0             -5.970265       4.3500488    
    810000   0.54710986    -6.8586161      0             -6.0402309      4.1310842    
    840000   0.57032813    -6.861902       0             -6.0087862      4.0406321    
    870000   0.54939999    -6.8648665      0             -6.0430557      4.1356383    
    900000   0.53191667    -6.8761477      0             -6.080489       3.9027753    
    930000   0.56706336    -6.7475974      0             -5.8993651      4.8366775    
    960000   0.54996787    -6.7833704      0             -5.9607101      4.6855715    
    990000   0.54386654    -6.7531939      0             -5.9396602      4.7096068    
   1020000   0.55754602    -6.7760311      0             -5.9420352      4.5371841    
   1050000   0.59327353    -6.8905952      0             -6.0031569      4.0376207    
   1080000   0.55998328    -6.825373       0             -5.9877313      4.2772889    
   1110000   0.57278946    -6.9082093      0             -6.0514117      3.7533818    
   1140000   0.5707656     -6.8249256      0             -5.9711554      4.3174016    
   1170000   0.56452191    -6.8054778      0             -5.9610472      4.5138594    
   1200000   0.53477094    -6.763849       0             -5.9639208      4.5081273    
   1230000   0.54956282    -6.8495373      0             -6.0274829      4.0387935    
   1260000   0.51003154    -6.8566798      0             -6.0937576      4.0710083    
   1290000   0.56403504    -6.8390737      0             -5.9953713      4.2329834    
   1320000   0.53776952    -6.8485434      0             -6.0441298      4.1243421    
   1350000   0.5588985     -6.8460707      0             -6.0100517      4.2338315    
   1380000   0.53844169    -6.7665916      0             -5.9611726      4.7488182    
   1410000   0.53660718    -6.7955878      0             -5.9929129      4.5557345    
   1440000   0.54736866    -6.7500647      0             -5.9312924      4.8938025    
   1470000   0.57585445    -6.8459531      0             -5.9845708      4.1057919    
   1500000   0.56647219    -6.8941331      0             -6.0467851      4.0342394    
   1530000   0.54756893    -6.8199801      0             -6.0009082      4.2345469    
   1560000   0.53022049    -6.8458035      0             -6.052682       4.1558753    
   1590000   0.55962032    -6.7849122      0             -5.9478134      4.635409     
   1620000   0.54978715    -6.7883834      0             -5.9659935      4.6511597    
   1650000   0.55494883    -6.8443705      0             -6.0142595      4.2275105    
   1680000   0.54655523    -6.8186673      0             -6.0011117      4.4147672    
   1710000   0.56106005    -6.8929445      0             -6.0536922      3.9030965    
   1740000   0.56501889    -6.744807       0             -5.8996329      4.8855375    
   1770000   0.54000567    -6.7251011      0             -5.9173426      4.906194     
   1800000   0.54185844    -6.8141036      0             -6.0035737      4.4793614    
   1830000   0.58323841    -6.8327682      0             -5.9603408      4.4805314    
   1860000   0.58622089    -6.8445142      0             -5.9676254      4.1255934    
   1890000   0.58172497    -6.7992171      0             -5.9290535      4.5365371    
   1920000   0.62120177    -6.7715694      0             -5.8423551      4.7187103    
   1950000   0.5519229     -6.8603693      0             -6.0347847      4.1433182    
   1980000   0.52272528    -6.8501384      0             -6.0682285      3.9836626    
   2010000   0.57732289    -6.8016671      0             -5.9380883      4.4981034    
   2040000   0.54402371    -6.8846763      0             -6.0709075      4.0670922    
   2070000   0.56902213    -6.8117377      0             -5.9605754      4.5096001    
   2100000   0.52428153    -6.8201647      0             -6.0359269      4.2789947    
   2130000   0.5503642     -6.8576016      0             -6.0343485      4.1298183    
   2160000   0.52854526    -6.760225       0             -5.9696094      4.7500144    
   2190000   0.52833878    -6.8567709      0             -6.0664641      4.1026499    
   2220000   0.56890998    -6.7835534      0             -5.9325589      4.6759063    
   2250000   0.53356206    -6.8687131      0             -6.0705932      4.1146239    
   2280000   0.54650568    -6.8070156      0             -5.9895341      4.4369809    
   2310000   0.54860433    -6.8299463      0             -6.0093256      4.4962314    
   2340000   0.59164295    -6.8350558      0             -5.9500566      4.4089799    
   2370000   0.52645157    -6.8545205      0             -6.0670367      4.1232133    
   2400000   0.52419858    -6.7829282      0             -5.9988145      4.6193816    
   2430000   0.55368005    -6.8110894      0             -5.9828763      4.3808767    
   2460000   0.55994702    -6.829612       0             -5.9920246      4.363483     
   2490000   0.58295153    -6.7607898      0             -5.8887915      4.8912042    
   2520000   0.55023402    -6.8176822      0             -5.9946238      4.5144365    
   2550000   0.58049809    -6.7453379      0             -5.8770095      4.9247948    
   2580000   0.55250466    -6.8195775      0             -5.9931226      4.5184306    
   2610000   0.54614991    -6.8697221      0             -6.0527729      4.1027469    
   2640000   0.52841092    -6.801767       0             -6.0113523      4.462415     
   2670000   0.54414727    -6.8124365      0             -5.9984829      4.4438532    
   2700000   0.55678429    -6.8138259      0             -5.9809694      4.3855598    
   2730000   0.54017511    -6.8025656      0             -5.9945537      4.497163     
   2760000   0.55901405    -6.8336866      0             -5.9974948      4.1571514    
   2790000   0.57727057    -6.7631237      0             -5.8996231      4.9724734    
   2820000   0.57495612    -6.8424843      0             -5.9824458      4.2254184    
   2850000   0.54243495    -6.749903       0             -5.9385107      4.715877     
   2880000   0.54386146    -6.9090357      0             -6.0955096      3.8929489    
   2910000   0.63900663    -6.7520305      0             -5.796183       5.0330991    
   2940000   0.53568425    -6.8149591      0             -6.0136648      4.3388671    
   2970000   0.58743118    -6.7357504      0             -5.8570513      4.8709376    
   3000000   0.58125972    -6.7875588      0             -5.9180911      4.5866543    
Loop time of 143.091 on 48 procs for 3000000 steps with 360 atoms

Performance: 5434322.918 tau/day, 20965.752 timesteps/s, 7.548 Matom-step/s
99.6% CPU use with 48 MPI tasks x 1 OpenMP threads

MPI task timing breakdown:
Section |  min time  |  avg time  |  max time  |%varavg| %total
---------------------------------------------------------------
Pair    | 9.2554     | 9.6604     | 10.314     |   8.5 |  6.75
Neigh   | 1.5118     | 1.5796     | 1.6555     |   2.5 |  1.10
Comm    | 106.04     | 109.48     | 113.4      |  18.8 | 76.51
Output  | 0.0076084  | 0.007652   | 0.008506   |   0.1 |  0.01
Modify  | 14.122     | 17.903     | 21.469     |  45.6 | 12.51
Other   |            | 4.46       |            |       |  3.12

Nlocal:            7.5 ave          11 max           5 min
Histogram: 3 11 0 10 0 12 8 0 3 1
Nghost:        572.438 ave         584 max         563 min
Histogram: 2 6 5 7 9 6 9 2 1 1
Neighs:        434.104 ave         617 max         274 min
Histogram: 2 4 7 6 8 3 12 3 2 1

Total # of neighbors = 20837
Ave neighs/atom = 57.880556
Neighbor list builds = 84916
Dangerous builds = 627
Total wall time: 0:02:24
