
include ${pot}.lmp
include kalj.lmp
units lj
atom_style atomic

variable dimensions equal 3
variable density equal 1.2
variable fraca equal 0.8

dimension ${dimensions}
dimension 3
read_restart ${prevbasename}.final.lmprestart.${prevsteps}
read_restart equil/kalj_T1_n360_v300_50000_1.final.lmprestart.${prevsteps}
read_restart equil/kalj_T1_n360_v300_50000_1.final.lmprestart.50000
Reading restart file ...
  restart file = 15 Sep 2022, LAMMPS = 15 Sep 2022
  restoring atom style atomic from restart
  orthogonal box = (0 0 0) to (6.6943295 6.6943295 6.6943295)
  3 by 4 by 4 MPI processor grid
  restoring pair style lj/cut from restart
  360 atoms
  read_restart CPU = 0.066 seconds
include ${pot}_particles.lmp
include kalj_particles.lmp
mass * 1.0 #  set mass 1.0 for all types

pair_style lj/cut 2.5
#pair coeffs type1 type2 eps sigma
pair_coeff 1 1 1.0 1.00 2.5
pair_coeff 1 2 1.5 0.80 2.0
pair_coeff 2 2 0.5 0.88 2.2
pair_modify shift yes
reset_timestep 0

print "Setting up annealing run"
Setting up annealing run
dump 1 all atom ${dumptime} ${basename}.lammpstrj
dump 1 all atom 50000 ${basename}.lammpstrj
dump 1 all atom 50000 equil/kalj_T0.9_n360_v300_150000_1.lammpstrj
#dump_modify 1 sort id scale no

restart ${restarttime} ${basename}.restart
restart 150000 ${basename}.restart
restart 150000 equil/kalj_T0.9_n360_v300_150000_1.restart
restart ${steps} ${basename}.final.lmprestart
restart 150000 ${basename}.final.lmprestart
restart 150000 equil/kalj_T0.9_n360_v300_150000_1.final.lmprestart

thermo ${thermotime}
thermo 5000
timestep ${timestep}
timestep 0.002

neighbor 0.5 bin
neigh_modify every 1 delay ${neighborstep} check yes
neigh_modify every 1 delay 25 check yes

velocity all create ${temp} ${id} dist gaussian
velocity all create 0.9 ${id} dist gaussian
velocity all create 0.9 1 dist gaussian
fix 1 all nvt temp ${temp} ${temp} ${taut}
fix 1 all nvt temp 0.9 ${temp} ${taut}
fix 1 all nvt temp 0.9 0.9 ${taut}
fix 1 all nvt temp 0.9 0.9 0.2
Resetting global fix info from restart file:
  fix style: nvt, fix ID: 1
run ${steps}
run 150000
Generated 0 of 1 mixed pair_coeff terms from geometric mixing rule
All restart file global fix info was re-assigned
Neighbor list info ...
  update: every = 1 steps, delay = 25 steps, check = yes
  max neighbors/atom: 2000, page size: 100000
  master list distance cutoff = 3
  ghost atom cutoff = 3
  binsize = 1.5, bins = 5 5 5
  1 neighbor lists, perpetual/occasional/extra = 1 0 0
  (1) pair lj/cut, perpetual
      attributes: half, newton on
      pair build: half/bin/atomonly/newton
      stencil: half/bin/3d
      bin: standard
Per MPI rank memory allocation (min/avg/max) = 3.961 | 3.961 | 3.961 Mbytes
   Step          Temp          E_pair         E_mol          TotEng         Press     
         0   0.9           -6.0404593      0             -4.6942093      9.5344836    
      5000   0.90684708    -6.2785954      0             -4.9221033      8.2747696    
     10000   0.91588538    -6.1226578      0             -4.7526459      9.1213417    
     15000   0.89601441    -6.1732061      0             -4.8329179      8.7033089    
     20000   0.93955138    -6.1307145      0             -4.7253022      9.0106891    
     25000   0.84753603    -6.2816799      0             -5.0139073      8.0094645    
     30000   0.90733977    -6.2388209      0             -4.8815918      8.4297153    
     35000   0.94900292    -6.2134292      0             -4.793879       8.5054005    
     40000   0.94163865    -6.1063389      0             -4.6978044      9.2925599    
     45000   0.85060438    -6.2286393      0             -4.9562769      8.4024207    
     50000   0.90460923    -6.0956801      0             -4.7425355      9.0979674    
     55000   0.80520249    -6.2785616      0             -5.0741129      8.1003387    
     60000   0.89836458    -6.1332454      0             -4.7894417      9.0227149    
     65000   0.8297932     -6.2758359      0             -5.0346036      8.0751724    
     70000   0.91674102    -6.0374591      0             -4.6661673      9.6116372    
     75000   0.98516651    -6.3023991      0             -4.8287542      8.1788421    
     80000   0.85958975    -6.2013959      0             -4.915593       8.454485     
     85000   0.86159362    -6.2508731      0             -4.9620726      8.0661278    
     90000   0.90222184    -6.2053359      0             -4.8557624      8.6467124    
     95000   0.89207983    -6.0653777      0             -4.730975       9.4371942    
    100000   0.93508718    -6.1646548      0             -4.7659202      8.8980424    
    105000   0.92495624    -6.16626        0             -4.7826796      8.8169654    
    110000   0.95847695    -6.1232731      0             -4.6895513      9.1243694    
    115000   0.85095737    -6.1947598      0             -4.9218694      8.6347535    
    120000   0.87214619    -6.1669374      0             -4.8623521      8.880831     
    125000   0.8978994     -6.0982037      0             -4.7550959      9.2606026    
    130000   0.92147478    -6.2459722      0             -4.8675995      8.3105549    
    135000   0.95472134    -6.1351602      0             -4.7070562      8.9766673    
    140000   0.9219497     -6.2479626      0             -4.8688796      8.2193538    
    145000   0.91130463    -6.1442316      0             -4.7810718      9.1570922    
    150000   0.88738961    -6.1091323      0             -4.7817453      9.1294106    
Loop time of 7.84307 on 48 procs for 150000 steps with 360 atoms

Performance: 3304828.508 tau/day, 19125.165 timesteps/s, 6.885 Matom-step/s
99.4% CPU use with 48 MPI tasks x 1 OpenMP threads

MPI task timing breakdown:
Section |  min time  |  avg time  |  max time  |%varavg| %total
---------------------------------------------------------------
Pair    | 0.45567    | 0.48401    | 0.53071    |   2.4 |  6.17
Neigh   | 0.0684     | 0.072002   | 0.077658   |   0.6 |  0.92
Comm    | 5.652      | 5.9071     | 6.1652     |   4.3 | 75.32
Output  | 0.063587   | 0.063599   | 0.063767   |   0.0 |  0.81
Modify  | 0.7747     | 1.0426     | 1.2496     |  10.4 | 13.29
Other   |            | 0.2738     |            |       |  3.49

Nlocal:            7.5 ave          11 max           4 min
Histogram: 1 3 7 0 14 11 0 8 3 1
Nghost:        575.271 ave         587 max         555 min
Histogram: 1 1 3 2 6 7 8 6 7 7
Neighs:        432.979 ave         634 max         244 min
Histogram: 2 2 4 10 11 4 8 4 1 2

Total # of neighbors = 20783
Ave neighs/atom = 57.730556
Neighbor list builds = 3830
Dangerous builds = 4
Total wall time: 0:00:08
