
include ${pot}.lmp
include kalj.lmp
units lj
atom_style atomic

variable dimensions equal 3
variable density equal 1.2
variable fraca equal 0.8

dimension ${dimensions}
dimension 3
read_restart ${prevbasename}.final.lmprestart.${prevsteps}
read_restart equil/kalj_T0.65_n360_v300_350000_1.final.lmprestart.${prevsteps}
read_restart equil/kalj_T0.65_n360_v300_350000_1.final.lmprestart.350000
Reading restart file ...
  restart file = 15 Sep 2022, LAMMPS = 15 Sep 2022
  restoring atom style atomic from restart
  orthogonal box = (0 0 0) to (6.6943295 6.6943295 6.6943295)
  3 by 4 by 4 MPI processor grid
  restoring pair style lj/cut from restart
  360 atoms
  read_restart CPU = 0.045 seconds
include ${pot}_particles.lmp
include kalj_particles.lmp
mass * 1.0 #  set mass 1.0 for all types

pair_style lj/cut 2.5
#pair coeffs type1 type2 eps sigma
pair_coeff 1 1 1.0 1.00 2.5
pair_coeff 1 2 1.5 0.80 2.0
pair_coeff 2 2 0.5 0.88 2.2
pair_modify shift yes
reset_timestep 0

print "Setting up annealing run"
Setting up annealing run
dump 1 all atom ${dumptime} ${basename}.lammpstrj
dump 1 all atom 100000 ${basename}.lammpstrj
dump 1 all atom 100000 equil/kalj_T0.6_n360_v300_1000000_1.lammpstrj
#dump_modify 1 sort id scale no

restart ${restarttime} ${basename}.restart
restart 1000000 ${basename}.restart
restart 1000000 equil/kalj_T0.6_n360_v300_1000000_1.restart
restart ${steps} ${basename}.final.lmprestart
restart 1000000 ${basename}.final.lmprestart
restart 1000000 equil/kalj_T0.6_n360_v300_1000000_1.final.lmprestart

thermo ${thermotime}
thermo 50000
timestep ${timestep}
timestep 0.003

neighbor 0.5 bin
neigh_modify every 1 delay ${neighborstep} check yes
neigh_modify every 1 delay 25 check yes

velocity all create ${temp} ${id} dist gaussian
velocity all create 0.6 ${id} dist gaussian
velocity all create 0.6 1 dist gaussian
fix 1 all nvt temp ${temp} ${temp} ${taut}
fix 1 all nvt temp 0.6 ${temp} ${taut}
fix 1 all nvt temp 0.6 0.6 ${taut}
fix 1 all nvt temp 0.6 0.6 0.3
Resetting global fix info from restart file:
  fix style: nvt, fix ID: 1
run ${steps}
run 1000000
Generated 0 of 1 mixed pair_coeff terms from geometric mixing rule
All restart file global fix info was re-assigned
Neighbor list info ...
  update: every = 1 steps, delay = 25 steps, check = yes
  max neighbors/atom: 2000, page size: 100000
  master list distance cutoff = 3
  ghost atom cutoff = 3
  binsize = 1.5, bins = 5 5 5
  1 neighbor lists, perpetual/occasional/extra = 1 0 0
  (1) pair lj/cut, perpetual
      attributes: half, newton on
      pair build: half/bin/atomonly/newton
      stencil: half/bin/3d
      bin: standard
Per MPI rank memory allocation (min/avg/max) = 3.961 | 3.961 | 3.961 Mbytes
   Step          Temp          E_pair         E_mol          TotEng         Press     
         0   0.6           -6.5748075      0             -5.6773075      6.1346468    
     50000   0.59251981    -6.7244312      0             -5.8381203      4.9638779    
    100000   0.60781151    -6.667907       0             -5.7587223      5.4761874    
    150000   0.59935883    -6.7301028      0             -5.8335618      4.8693466    
    200000   0.5800489     -6.7564498      0             -5.8887933      4.7946411    
    250000   0.59741721    -6.6582379      0             -5.7646013      5.4386822    
    300000   0.61691357    -6.6157684      0             -5.6929685      5.8328091    
    350000   0.61809074    -6.6726424      0             -5.7480817      5.3248356    
    400000   0.57338068    -6.7016905      0             -5.8440086      5.0707716    
    450000   0.60708376    -6.7056082      0             -5.7975121      5.3473253    
    500000   0.60269841    -6.7141916      0             -5.8126552      5.0792921    
    550000   0.60429987    -6.6697824      0             -5.7658506      5.2837167    
    600000   0.57857723    -6.7435285      0             -5.8780734      4.8348648    
    650000   0.60540326    -6.7246652      0             -5.8190829      5.013688     
    700000   0.62289591    -6.7421082      0             -5.8103598      4.7810544    
    750000   0.6274704     -6.6811867      0             -5.7425955      5.2470875    
    800000   0.5905833     -6.7582522      0             -5.8748381      4.7285927    
    850000   0.6025624     -6.7495294      0             -5.8481965      4.8906947    
    900000   0.57349641    -6.647915       0             -5.79006        5.5728419    
    950000   0.61204328    -6.7355013      0             -5.8199866      5.0500403    
   1000000   0.55606749    -6.6683433      0             -5.836559       5.1338672    
Loop time of 48.0513 on 48 procs for 1000000 steps with 360 atoms

Performance: 5394231.658 tau/day, 20811.079 timesteps/s, 7.492 Matom-step/s
99.6% CPU use with 48 MPI tasks x 1 OpenMP threads

MPI task timing breakdown:
Section |  min time  |  avg time  |  max time  |%varavg| %total
---------------------------------------------------------------
Pair    | 3.1028     | 3.2529     | 3.6308     |   6.1 |  6.77
Neigh   | 0.53044    | 0.55702    | 0.59931    |   1.7 |  1.16
Comm    | 35.84      | 36.765     | 38.311     |  10.8 | 76.51
Output  | 0.02557    | 0.025583   | 0.02575    |   0.0 |  0.05
Modify  | 4.6946     | 6.1193     | 7.1042     |  26.8 | 12.74
Other   |            | 1.331      |            |       |  2.77

Nlocal:            7.5 ave          11 max           5 min
Histogram: 4 7 0 14 0 12 7 0 3 1
Nghost:        576.938 ave         591 max         566 min
Histogram: 5 3 9 3 9 4 7 5 2 1
Neighs:        434.188 ave         624 max         299 min
Histogram: 5 5 6 8 8 5 4 3 1 3

Total # of neighbors = 20841
Ave neighs/atom = 57.891667
Neighbor list builds = 29896
Dangerous builds = 529
Total wall time: 0:00:48
