
include ${pot}.lmp
include kalj.lmp
units lj
atom_style atomic

variable dimensions equal 3
variable density equal 1.2
variable fraca equal 0.8

dimension ${dimensions}
dimension 3
read_restart ${prevbasename}.final.lmprestart.${steps}
read_restart equil/kalj_T0.55_n360_v300_3000000_1.final.lmprestart.${steps}
read_restart equil/kalj_T0.55_n360_v300_3000000_1.final.lmprestart.3000000
Reading restart file ...
  restart file = 15 Sep 2022, LAMMPS = 15 Sep 2022
  restoring atom style atomic from restart
  orthogonal box = (0 0 0) to (6.6943295 6.6943295 6.6943295)
  4 by 4 by 4 MPI processor grid
  restoring pair style lj/cut from restart
  360 atoms
  read_restart CPU = 0.009 seconds
include ${pot}_particles.lmp
include kalj_particles.lmp
mass * 1.0 #  set mass 1.0 for all types

pair_style lj/cut 2.5
#pair coeffs type1 type2 eps sigma
pair_coeff 1 1 1.0 1.00 2.5
pair_coeff 1 2 1.5 0.80 2.0
pair_coeff 2 2 0.5 0.88 2.2
pair_modify shift yes
reset_timestep 0

print "Setting up equilibration run"
Setting up equilibration run
variable dumptime2 equal ${steps}/2000
variable dumptime2 equal 3000000/2000
dump 1 all dcd ${dumptime2} ${basename}.unwrap.dcd
dump 1 all dcd 1500 ${basename}.unwrap.dcd
dump 1 all dcd 1500 prod/kalj_T0.55_n360_v300_prod_3000000_1.unwrap.dcd
#dump 2 all dcd ${dumptime2} ${basename}.dcd
dump_modify 1 unwrap yes
#dump_modify 2 unwrap no

restart ${restarttime} ${basename}.restart
restart 3000000 ${basename}.restart
restart 3000000 prod/kalj_T0.55_n360_v300_prod_3000000_1.restart
restart ${steps} ${basename}.final.lmprestart
restart 3000000 ${basename}.final.lmprestart
restart 3000000 prod/kalj_T0.55_n360_v300_prod_3000000_1.final.lmprestart

thermo ${thermotime}
thermo 30000
timestep ${timestep}
timestep 0.003

neighbor 0.5 bin
neigh_modify every 1 delay ${neighborstep} check yes
neigh_modify every 1 delay 25 check yes

#velocity all create ${temp} ${id} dist gaussian
fix 1 all nvt temp ${temp} ${temp} ${taut}
fix 1 all nvt temp 0.55 ${temp} ${taut}
fix 1 all nvt temp 0.55 0.55 ${taut}
fix 1 all nvt temp 0.55 0.55 0.3
Resetting global fix info from restart file:
  fix style: nvt, fix ID: 1

variable steps4 equal ${steps}/4
variable steps4 equal 3000000/4
run ${steps4}
run 750000
Generated 0 of 1 mixed pair_coeff terms from geometric mixing rule
All restart file global fix info was re-assigned
Neighbor list info ...
  update: every = 1 steps, delay = 25 steps, check = yes
  max neighbors/atom: 2000, page size: 100000
  master list distance cutoff = 3
  ghost atom cutoff = 3
  binsize = 1.5, bins = 5 5 5
  1 neighbor lists, perpetual/occasional/extra = 1 0 0
  (1) pair lj/cut, perpetual
      attributes: half, newton on
      pair build: half/bin/atomonly/newton
      stencil: half/bin/3d
      bin: standard
Per MPI rank memory allocation (min/avg/max) = 2.981 | 2.981 | 2.981 Mbytes
   Step          Temp          E_pair         E_mol          TotEng         Press     
         0   0.53828416    -6.8757992      0             -6.0706158      3.9402534    
     30000   0.53951798    -6.7802184      0             -5.9731894      4.5665331    
     60000   0.55162707    -6.8468817      0             -6.0217396      4.2618668    
     90000   0.51922689    -6.8059194      0             -6.0292425      4.5241435    
    120000   0.57247824    -6.8050955      0             -5.9487635      4.4147366    
    150000   0.58507097    -6.7803008      0             -5.9051322      4.6834499    
    180000   0.54055733    -6.7672397      0             -5.9586561      4.7128946    
    210000   0.51534477    -6.8403457      0             -6.0694758      4.3765856    
    240000   0.57942073    -6.8184698      0             -5.9517529      4.4659498    
    270000   0.56629822    -6.8499736      0             -6.0028858      4.1947429    
    300000   0.52846599    -6.8217139      0             -6.0312169      4.417647     
    330000   0.54965639    -6.8450179      0             -6.0228236      4.2398764    
    360000   0.58755601    -6.8491378      0             -5.970252       4.3045288    
    390000   0.55416152    -6.8756717      0             -6.0467385      3.9714585    
    420000   0.58302808    -6.8070268      0             -5.934914       4.4691074    
    450000   0.55245647    -6.7693475      0             -5.9429647      4.6365909    
    480000   0.57898852    -6.8621957      0             -5.9961253      4.1746054    
    510000   0.53287221    -6.7465808      0             -5.9494928      4.8609702    
    540000   0.55674406    -6.8062695      0             -5.9734732      4.3997758    
    570000   0.48741616    -6.7780381      0             -6.0489448      4.5546104    
    600000   0.49898469    -6.843754       0             -6.0973561      4.1858652    
    630000   0.52198372    -6.7811973      0             -6.0003966      4.5206414    
    660000   0.54991385    -6.8473589      0             -6.0247794      4.2211373    
    690000   0.55727848    -6.7629617      0             -5.9293659      4.6940165    
    720000   0.51665827    -6.7974068      0             -6.0245722      4.4617115    
    750000   0.58501702    -6.7838238      0             -5.9087359      4.5433009    
Loop time of 46.054 on 64 procs for 750000 steps with 360 atoms

Performance: 4221130.780 tau/day, 16285.227 timesteps/s, 5.863 Matom-step/s
99.7% CPU use with 64 MPI tasks x 1 OpenMP threads

MPI task timing breakdown:
Section |  min time  |  avg time  |  max time  |%varavg| %total
---------------------------------------------------------------
Pair    | 1.6847     | 1.8341     | 2.1602     |   6.5 |  3.98
Neigh   | 0.29511    | 0.31754    | 0.33807    |   1.7 |  0.69
Comm    | 33.984     | 35.351     | 36.752     |  14.6 | 76.76
Output  | 0.123      | 0.17152    | 0.2319     |   7.6 |  0.37
Modify  | 5.1134     | 6.6311     | 7.8604     |  34.7 | 14.40
Other   |            | 1.749      |            |       |  3.80

Nlocal:          5.625 ave           8 max           4 min
Histogram: 7 0 25 0 0 18 0 13 0 1
Nghost:        535.703 ave         550 max         525 min
Histogram: 7 5 8 5 17 5 6 6 4 1
Neighs:        325.359 ave         441 max         215 min
Histogram: 5 4 5 13 11 8 3 3 6 6

Total # of neighbors = 20823
Ave neighs/atom = 57.841667
Neighbor list builds = 21226
Dangerous builds = 145
Total wall time: 0:00:48
