
include ${pot}.lmp
include kalj.lmp
units lj
atom_style atomic

variable dimensions equal 3
variable density equal 1.2
variable fraca equal 0.8

dimension ${dimensions}
dimension 3
read_restart ${prevbasename}.final.lmprestart.${steps}
read_restart equil/kalj_T0.7_n360_v300_180000_1.final.lmprestart.${steps}
read_restart equil/kalj_T0.7_n360_v300_180000_1.final.lmprestart.180000
Reading restart file ...
  restart file = 15 Sep 2022, LAMMPS = 15 Sep 2022
  restoring atom style atomic from restart
  orthogonal box = (0 0 0) to (6.6943295 6.6943295 6.6943295)
  4 by 4 by 4 MPI processor grid
  restoring pair style lj/cut from restart
  360 atoms
  read_restart CPU = 0.024 seconds
include ${pot}_particles.lmp
include kalj_particles.lmp
mass * 1.0 #  set mass 1.0 for all types

pair_style lj/cut 2.5
#pair coeffs type1 type2 eps sigma
pair_coeff 1 1 1.0 1.00 2.5
pair_coeff 1 2 1.5 0.80 2.0
pair_coeff 2 2 0.5 0.88 2.2
pair_modify shift yes
reset_timestep 0

print "Setting up equilibration run"
Setting up equilibration run
variable dumptime2 equal ${steps}/2000
variable dumptime2 equal 180000/2000
dump 1 all dcd ${dumptime2} ${basename}.unwrap.dcd
dump 1 all dcd 90 ${basename}.unwrap.dcd
dump 1 all dcd 90 prod/kalj_T0.7_n360_v300_prod_180000_1.unwrap.dcd
#dump 2 all dcd ${dumptime2} ${basename}.dcd
dump_modify 1 unwrap yes
#dump_modify 2 unwrap no

restart ${restarttime} ${basename}.restart
restart 180000 ${basename}.restart
restart 180000 prod/kalj_T0.7_n360_v300_prod_180000_1.restart
restart ${steps} ${basename}.final.lmprestart
restart 180000 ${basename}.final.lmprestart
restart 180000 prod/kalj_T0.7_n360_v300_prod_180000_1.final.lmprestart

thermo ${thermotime}
thermo 6000
timestep ${timestep}
timestep 0.003

neighbor 0.5 bin
neigh_modify every 1 delay ${neighborstep} check yes
neigh_modify every 1 delay 25 check yes

#velocity all create ${temp} ${id} dist gaussian
fix 1 all nvt temp ${temp} ${temp} ${taut}
fix 1 all nvt temp 0.7 ${temp} ${taut}
fix 1 all nvt temp 0.7 0.7 ${taut}
fix 1 all nvt temp 0.7 0.7 0.3
Resetting global fix info from restart file:
  fix style: nvt, fix ID: 1

variable steps4 equal ${steps}/4
variable steps4 equal 180000/4
run ${steps4}
run 45000
Generated 0 of 1 mixed pair_coeff terms from geometric mixing rule
All restart file global fix info was re-assigned
Neighbor list info ...
  update: every = 1 steps, delay = 25 steps, check = yes
  max neighbors/atom: 2000, page size: 100000
  master list distance cutoff = 3
  ghost atom cutoff = 3
  binsize = 1.5, bins = 5 5 5
  1 neighbor lists, perpetual/occasional/extra = 1 0 0
  (1) pair lj/cut, perpetual
      attributes: half, newton on
      pair build: half/bin/atomonly/newton
      stencil: half/bin/3d
      bin: standard
Per MPI rank memory allocation (min/avg/max) = 2.981 | 2.981 | 2.981 Mbytes
   Step          Temp          E_pair         E_mol          TotEng         Press     
         0   0.66499813    -6.5254771      0             -5.5307507      6.1581499    
      6000   0.73075993    -6.4423472      0             -5.3492522      6.9166609    
     12000   0.70558175    -6.6264851      0             -5.5710524      5.9172252    
     18000   0.67680207    -6.5384606      0             -5.5260775      6.3861597    
     24000   0.64706811    -6.5575897      0             -5.5896837      6.1613376    
     30000   0.68984317    -6.550282       0             -5.5183915      6.1017484    
     36000   0.71910057    -6.5084669      0             -5.4328123      6.5167402    
     42000   0.64869759    -6.506298       0             -5.5359545      6.4132998    
     45000   0.78303568    -6.5076937      0             -5.3364028      6.7524426    
Loop time of 2.94392 on 64 procs for 45000 steps with 360 atoms

Performance: 3962057.867 tau/day, 15285.717 timesteps/s, 5.503 Matom-step/s
99.6% CPU use with 64 MPI tasks x 1 OpenMP threads

MPI task timing breakdown:
Section |  min time  |  avg time  |  max time  |%varavg| %total
---------------------------------------------------------------
Pair    | 0.096408   | 0.11136    | 0.1286     |   1.9 |  3.78
Neigh   | 0.019941   | 0.022193   | 0.024445   |   0.6 |  0.75
Comm    | 2.0851     | 2.2013     | 2.2899     |   4.0 | 74.78
Output  | 0.068053   | 0.11275    | 0.16757    |   8.8 |  3.83
Modify  | 0.31687    | 0.40982    | 0.48906    |   8.4 | 13.92
Other   |            | 0.08647    |            |       |  2.94

Nlocal:          5.625 ave           9 max           4 min
Histogram: 10 0 22 0 19 0 9 0 3 1
Nghost:        537.375 ave         551 max         527 min
Histogram: 5 3 12 8 10 12 4 7 1 2
Neighs:         326.25 ave         542 max         201 min
Histogram: 6 10 13 10 7 9 3 4 1 1

Total # of neighbors = 20880
Ave neighs/atom = 58
Neighbor list builds = 1474
Dangerous builds = 117
Total wall time: 0:00:05
