
include ${pot}.lmp
include kalj.lmp
units lj
atom_style atomic

variable dimensions equal 3
variable density equal 1.2
variable fraca equal 0.8

dimension ${dimensions}
dimension 3
read_restart ${prevbasename}.final.lmprestart.${steps}
read_restart equil/kalj_T0.5_n360_v300_10000000_1.final.lmprestart.${steps}
read_restart equil/kalj_T0.5_n360_v300_10000000_1.final.lmprestart.10000000
Reading restart file ...
  restart file = 15 Sep 2022, LAMMPS = 15 Sep 2022
  restoring atom style atomic from restart
  orthogonal box = (0 0 0) to (6.6943295 6.6943295 6.6943295)
  4 by 4 by 4 MPI processor grid
  restoring pair style lj/cut from restart
  360 atoms
  read_restart CPU = 0.011 seconds
include ${pot}_particles.lmp
include kalj_particles.lmp
mass * 1.0 #  set mass 1.0 for all types

pair_style lj/cut 2.5
#pair coeffs type1 type2 eps sigma
pair_coeff 1 1 1.0 1.00 2.5
pair_coeff 1 2 1.5 0.80 2.0
pair_coeff 2 2 0.5 0.88 2.2
pair_modify shift yes
reset_timestep 0

print "Setting up equilibration run"
Setting up equilibration run
variable dumptime2 equal ${steps}/2000
variable dumptime2 equal 10000000/2000
dump 1 all dcd ${dumptime2} ${basename}.unwrap.dcd
dump 1 all dcd 5000 ${basename}.unwrap.dcd
dump 1 all dcd 5000 prod/kalj_T0.5_n360_v300_prod_10000000_1.unwrap.dcd
#dump 2 all dcd ${dumptime2} ${basename}.dcd
dump_modify 1 unwrap yes
#dump_modify 2 unwrap no

restart ${restarttime} ${basename}.restart
restart 10000000 ${basename}.restart
restart 10000000 prod/kalj_T0.5_n360_v300_prod_10000000_1.restart
restart ${steps} ${basename}.final.lmprestart
restart 10000000 ${basename}.final.lmprestart
restart 10000000 prod/kalj_T0.5_n360_v300_prod_10000000_1.final.lmprestart

thermo ${thermotime}
thermo 100000
timestep ${timestep}
timestep 0.003

neighbor 0.5 bin
neigh_modify every 1 delay ${neighborstep} check yes
neigh_modify every 1 delay 25 check yes

#velocity all create ${temp} ${id} dist gaussian
fix 1 all nvt temp ${temp} ${temp} ${taut}
fix 1 all nvt temp 0.5 ${temp} ${taut}
fix 1 all nvt temp 0.5 0.5 ${taut}
fix 1 all nvt temp 0.5 0.5 0.3
Resetting global fix info from restart file:
  fix style: nvt, fix ID: 1

variable steps4 equal ${steps}/4
variable steps4 equal 10000000/4
run ${steps4}
run 2500000
Generated 0 of 1 mixed pair_coeff terms from geometric mixing rule
All restart file global fix info was re-assigned
Neighbor list info ...
  update: every = 1 steps, delay = 25 steps, check = yes
  max neighbors/atom: 2000, page size: 100000
  master list distance cutoff = 3
  ghost atom cutoff = 3
  binsize = 1.5, bins = 5 5 5
  1 neighbor lists, perpetual/occasional/extra = 1 0 0
  (1) pair lj/cut, perpetual
      attributes: half, newton on
      pair build: half/bin/atomonly/newton
      stencil: half/bin/3d
      bin: standard
Per MPI rank memory allocation (min/avg/max) = 2.981 | 2.981 | 2.981 Mbytes
   Step          Temp          E_pair         E_mol          TotEng         Press     
         0   0.50782204    -6.8903085      0             -6.1306914      3.8897998    
    100000   0.51055716    -6.9096211      0             -6.1459126      3.6476891    
    200000   0.51430562    -6.8734998      0             -6.1041843      3.9937714    
    300000   0.53733794    -6.9049767      0             -6.1012087      3.7484027    
    400000   0.49632023    -6.8901641      0             -6.1477518      3.7660226    
    500000   0.5188527     -6.8989617      0             -6.1228445      3.7308719    
    600000   0.50157025    -6.9284612      0             -6.1781957      3.5954967    
    700000   0.49982356    -6.9402498      0             -6.192597       3.5689647    
    800000   0.51633837    -6.8974153      0             -6.1250592      3.9663047    
    900000   0.50514393    -6.9193618      0             -6.1637507      3.6872469    
   1000000   0.51272847    -6.9810708      0             -6.2141144      3.3543544    
   1100000   0.49997976    -6.8567822      0             -6.1088958      4.0302902    
   1200000   0.47905652    -6.929716       0             -6.2131273      3.7784148    
   1300000   0.44915229    -6.8309944      0             -6.1591374      4.1520203    
   1400000   0.50141274    -6.877182       0             -6.1271521      4.0008741    
   1500000   0.47366153    -6.9094653      0             -6.2009466      3.7053105    
   1600000   0.51037787    -6.9610608      0             -6.1976206      3.5649038    
   1700000   0.49841372    -6.9410026      0             -6.1954587      3.53412      
   1800000   0.50253178    -6.9250159      0             -6.1733121      3.7643415    
   1900000   0.5335925     -6.9421022      0             -6.1439368      3.6040319    
   2000000   0.5234171     -6.9539746      0             -6.1710299      3.4072361    
   2100000   0.49283239    -6.9146663      0             -6.1774712      3.7858817    
   2200000   0.49004475    -6.8768391      0             -6.1438138      3.8016356    
   2300000   0.48335629    -6.8812734      0             -6.158253       3.9536717    
   2400000   0.46095315    -6.908504       0             -6.2189949      3.7967264    
   2500000   0.47930228    -6.9507923      0             -6.233836       3.5103404    
Loop time of 154.072 on 64 procs for 2500000 steps with 360 atoms

Performance: 4205826.572 tau/day, 16226.183 timesteps/s, 5.841 Matom-step/s
99.7% CPU use with 64 MPI tasks x 1 OpenMP threads

MPI task timing breakdown:
Section |  min time  |  avg time  |  max time  |%varavg| %total
---------------------------------------------------------------
Pair    | 5.3427     | 6.0959     | 6.946      |  14.6 |  3.96
Neigh   | 0.90387    | 0.99456    | 1.0879     |   3.9 |  0.65
Comm    | 113.07     | 117.96     | 122.75     |  27.0 | 76.56
Output  | 0.12248    | 0.17127    | 0.23298    |   7.6 |  0.11
Modify  | 16.517     | 22.396     | 26.845     |  64.6 | 14.54
Other   |            | 6.459      |            |       |  4.19

Nlocal:          5.625 ave           9 max           2 min
Histogram: 1 4 7 0 14 22 0 13 2 1
Nghost:        538.656 ave         552 max         520 min
Histogram: 3 0 4 5 4 17 10 12 5 4
Neighs:        325.109 ave         526 max         130 min
Histogram: 2 5 5 7 9 17 11 4 3 1

Total # of neighbors = 20807
Ave neighs/atom = 57.797222
Neighbor list builds = 66501
Dangerous builds = 150
Total wall time: 0:02:35
