
include ${pot}.lmp
include kalj.lmp
units lj
atom_style atomic

variable dimensions equal 3
variable density equal 1.2
variable fraca equal 0.8

dimension ${dimensions}
dimension 3
read_restart ${prevbasename}.final.lmprestart.${steps}
read_restart equil/kalj_T0.8_n360_v300_150000_1.final.lmprestart.${steps}
read_restart equil/kalj_T0.8_n360_v300_150000_1.final.lmprestart.150000
Reading restart file ...
  restart file = 15 Sep 2022, LAMMPS = 15 Sep 2022
  restoring atom style atomic from restart
  orthogonal box = (0 0 0) to (6.6943295 6.6943295 6.6943295)
  4 by 4 by 4 MPI processor grid
  restoring pair style lj/cut from restart
  360 atoms
  read_restart CPU = 0.026 seconds
include ${pot}_particles.lmp
include kalj_particles.lmp
mass * 1.0 #  set mass 1.0 for all types

pair_style lj/cut 2.5
#pair coeffs type1 type2 eps sigma
pair_coeff 1 1 1.0 1.00 2.5
pair_coeff 1 2 1.5 0.80 2.0
pair_coeff 2 2 0.5 0.88 2.2
pair_modify shift yes
reset_timestep 0

print "Setting up equilibration run"
Setting up equilibration run
variable dumptime2 equal ${steps}/2000
variable dumptime2 equal 150000/2000
dump 1 all dcd ${dumptime2} ${basename}.unwrap.dcd
dump 1 all dcd 75 ${basename}.unwrap.dcd
dump 1 all dcd 75 prod/kalj_T0.8_n360_v300_prod_150000_1.unwrap.dcd
#dump 2 all dcd ${dumptime2} ${basename}.dcd
dump_modify 1 unwrap yes
#dump_modify 2 unwrap no

restart ${restarttime} ${basename}.restart
restart 150000 ${basename}.restart
restart 150000 prod/kalj_T0.8_n360_v300_prod_150000_1.restart
restart ${steps} ${basename}.final.lmprestart
restart 150000 ${basename}.final.lmprestart
restart 150000 prod/kalj_T0.8_n360_v300_prod_150000_1.final.lmprestart

thermo ${thermotime}
thermo 5000
timestep ${timestep}
timestep 0.002

neighbor 0.5 bin
neigh_modify every 1 delay ${neighborstep} check yes
neigh_modify every 1 delay 25 check yes

#velocity all create ${temp} ${id} dist gaussian
fix 1 all nvt temp ${temp} ${temp} ${taut}
fix 1 all nvt temp 0.8 ${temp} ${taut}
fix 1 all nvt temp 0.8 0.8 ${taut}
fix 1 all nvt temp 0.8 0.8 0.2
Resetting global fix info from restart file:
  fix style: nvt, fix ID: 1

variable steps4 equal ${steps}/4
variable steps4 equal 150000/4
run ${steps4}
run 37500
Generated 0 of 1 mixed pair_coeff terms from geometric mixing rule
All restart file global fix info was re-assigned
Neighbor list info ...
  update: every = 1 steps, delay = 25 steps, check = yes
  max neighbors/atom: 2000, page size: 100000
  master list distance cutoff = 3
  ghost atom cutoff = 3
  binsize = 1.5, bins = 5 5 5
  1 neighbor lists, perpetual/occasional/extra = 1 0 0
  (1) pair lj/cut, perpetual
      attributes: half, newton on
      pair build: half/bin/atomonly/newton
      stencil: half/bin/3d
      bin: standard
Per MPI rank memory allocation (min/avg/max) = 2.981 | 2.981 | 2.981 Mbytes
   Step          Temp          E_pair         E_mol          TotEng         Press     
         0   0.83163238    -6.3268972      0             -5.0829137      7.6448683    
      5000   0.80404783    -6.3879417      0             -5.1852202      7.3053078    
     10000   0.75494082    -6.373077       0             -5.2438113      7.2967976    
     15000   0.86855058    -6.3479041      0             -5.0486971      7.6605633    
     20000   0.84520807    -6.3191852      0             -5.0548947      8.072753     
     25000   0.73894819    -6.3625328      0             -5.2571895      7.2487321    
     30000   0.76490728    -6.31388        0             -5.1697062      7.8478957    
     35000   0.79290208    -6.3277968      0             -5.1417474      7.6461553    
     37500   0.7563597     -6.3043336      0             -5.1729455      7.8244064    
Loop time of 2.50652 on 64 procs for 37500 steps with 360 atoms

Performance: 2585256.480 tau/day, 14960.975 timesteps/s, 5.386 Matom-step/s
99.6% CPU use with 64 MPI tasks x 1 OpenMP threads

MPI task timing breakdown:
Section |  min time  |  avg time  |  max time  |%varavg| %total
---------------------------------------------------------------
Pair    | 0.080653   | 0.0912     | 0.10015    |   1.5 |  3.64
Neigh   | 0.012367   | 0.013626   | 0.015133   |   0.4 |  0.54
Comm    | 1.7208     | 1.8181     | 1.8927     |   3.4 | 72.54
Output  | 0.063258   | 0.10759    | 0.16183    |   8.9 |  4.29
Modify  | 0.25762    | 0.34319    | 0.4079     |   7.5 | 13.69
Other   |            | 0.1328     |            |       |  5.30

Nlocal:          5.625 ave           8 max           3 min
Histogram: 1 0 12 0 15 0 21 0 12 3
Nghost:        535.375 ave         545 max         525 min
Histogram: 3 2 7 3 13 10 11 6 1 8
Neighs:        324.547 ave         483 max         180 min
Histogram: 5 3 6 10 11 10 7 5 4 3

Total # of neighbors = 20771
Ave neighs/atom = 57.697222
Neighbor list builds = 896
Dangerous builds = 0
Total wall time: 0:00:04
