
include ${pot}.lmp
include kalj.lmp
units lj
atom_style atomic

variable dimensions equal 3
variable density equal 1.2
variable fraca equal 0.8

dimension ${dimensions}
dimension 3
read_restart ${prevbasename}.final.lmprestart.${steps}
read_restart equil/kalj_T0.9_n360_v300_150000_1.final.lmprestart.${steps}
read_restart equil/kalj_T0.9_n360_v300_150000_1.final.lmprestart.150000
Reading restart file ...
  restart file = 15 Sep 2022, LAMMPS = 15 Sep 2022
  restoring atom style atomic from restart
  orthogonal box = (0 0 0) to (6.6943295 6.6943295 6.6943295)
  4 by 4 by 4 MPI processor grid
  restoring pair style lj/cut from restart
  360 atoms
  read_restart CPU = 0.029 seconds
include ${pot}_particles.lmp
include kalj_particles.lmp
mass * 1.0 #  set mass 1.0 for all types

pair_style lj/cut 2.5
#pair coeffs type1 type2 eps sigma
pair_coeff 1 1 1.0 1.00 2.5
pair_coeff 1 2 1.5 0.80 2.0
pair_coeff 2 2 0.5 0.88 2.2
pair_modify shift yes
reset_timestep 0

print "Setting up equilibration run"
Setting up equilibration run
variable dumptime2 equal ${steps}/2000
variable dumptime2 equal 150000/2000
dump 1 all dcd ${dumptime2} ${basename}.unwrap.dcd
dump 1 all dcd 75 ${basename}.unwrap.dcd
dump 1 all dcd 75 prod/kalj_T0.9_n360_v300_prod_150000_1.unwrap.dcd
#dump 2 all dcd ${dumptime2} ${basename}.dcd
dump_modify 1 unwrap yes
#dump_modify 2 unwrap no

restart ${restarttime} ${basename}.restart
restart 150000 ${basename}.restart
restart 150000 prod/kalj_T0.9_n360_v300_prod_150000_1.restart
restart ${steps} ${basename}.final.lmprestart
restart 150000 ${basename}.final.lmprestart
restart 150000 prod/kalj_T0.9_n360_v300_prod_150000_1.final.lmprestart

thermo ${thermotime}
thermo 5000
timestep ${timestep}
timestep 0.002

neighbor 0.5 bin
neigh_modify every 1 delay ${neighborstep} check yes
neigh_modify every 1 delay 25 check yes

#velocity all create ${temp} ${id} dist gaussian
fix 1 all nvt temp ${temp} ${temp} ${taut}
fix 1 all nvt temp 0.9 ${temp} ${taut}
fix 1 all nvt temp 0.9 0.9 ${taut}
fix 1 all nvt temp 0.9 0.9 0.2
Resetting global fix info from restart file:
  fix style: nvt, fix ID: 1

variable steps4 equal ${steps}/4
variable steps4 equal 150000/4
run ${steps4}
run 37500
Generated 0 of 1 mixed pair_coeff terms from geometric mixing rule
All restart file global fix info was re-assigned
Neighbor list info ...
  update: every = 1 steps, delay = 25 steps, check = yes
  max neighbors/atom: 2000, page size: 100000
  master list distance cutoff = 3
  ghost atom cutoff = 3
  binsize = 1.5, bins = 5 5 5
  1 neighbor lists, perpetual/occasional/extra = 1 0 0
  (1) pair lj/cut, perpetual
      attributes: half, newton on
      pair build: half/bin/atomonly/newton
      stencil: half/bin/3d
      bin: standard
Per MPI rank memory allocation (min/avg/max) = 2.981 | 2.981 | 2.981 Mbytes
   Step          Temp          E_pair         E_mol          TotEng         Press     
         0   0.93423452    -6.1498362      0             -4.752377       9.0307119    
      5000   0.87411037    -6.1794706      0             -4.8719472      8.7399536    
     10000   0.96219817    -6.1750635      0             -4.7357754      8.9516853    
     15000   0.91729467    -6.1129638      0             -4.7408438      9.2951983    
     20000   0.89753553    -6.1589953      0             -4.8164318      8.8162513    
     25000   0.8911183     -6.1625513      0             -4.8295868      8.7509411    
     30000   0.89217543    -6.0817804      0             -4.7472347      9.3920743    
     35000   0.86627537    -6.2051666      0             -4.909363       8.6649288    
     37500   0.91871363    -6.2145897      0             -4.8403473      8.4647161    
Loop time of 2.52083 on 64 procs for 37500 steps with 360 atoms

Performance: 2570580.696 tau/day, 14876.046 timesteps/s, 5.355 Matom-step/s
99.6% CPU use with 64 MPI tasks x 1 OpenMP threads

MPI task timing breakdown:
Section |  min time  |  avg time  |  max time  |%varavg| %total
---------------------------------------------------------------
Pair    | 0.080923   | 0.091396   | 0.10321    |   1.6 |  3.63
Neigh   | 0.01357    | 0.014666   | 0.016155   |   0.5 |  0.58
Comm    | 1.7305     | 1.829      | 1.8963     |   3.5 | 72.55
Output  | 0.068987   | 0.11349    | 0.16806    |   8.7 |  4.50
Modify  | 0.27244    | 0.34966    | 0.41389    |   7.5 | 13.87
Other   |            | 0.1226     |            |       |  4.87

Nlocal:          5.625 ave           9 max           3 min
Histogram: 2 11 0 20 0 14 12 0 3 2
Nghost:        537.531 ave         554 max         520 min
Histogram: 3 2 7 7 10 10 11 7 3 4
Neighs:        325.359 ave         510 max         159 min
Histogram: 2 4 9 14 9 6 9 6 3 2

Total # of neighbors = 20823
Ave neighs/atom = 57.841667
Neighbor list builds = 964
Dangerous builds = 1
Total wall time: 0:00:03
