
include ${pot}.lmp
include kalj.lmp
units lj
atom_style atomic

variable dimensions equal 3
variable density equal 1.2
variable fraca equal 0.8

dimension ${dimensions}
dimension 3
read_restart ${prevbasename}.final.lmprestart.${steps}
read_restart equil/kalj_T0.475_n360_v300_30000000_1.final.lmprestart.${steps}
read_restart equil/kalj_T0.475_n360_v300_30000000_1.final.lmprestart.30000000
Reading restart file ...
  restart file = 15 Sep 2022, LAMMPS = 15 Sep 2022
  restoring atom style atomic from restart
  orthogonal box = (0 0 0) to (6.6943295 6.6943295 6.6943295)
  4 by 4 by 4 MPI processor grid
  restoring pair style lj/cut from restart
  360 atoms
  read_restart CPU = 0.010 seconds
include ${pot}_particles.lmp
include kalj_particles.lmp
mass * 1.0 #  set mass 1.0 for all types

pair_style lj/cut 2.5
#pair coeffs type1 type2 eps sigma
pair_coeff 1 1 1.0 1.00 2.5
pair_coeff 1 2 1.5 0.80 2.0
pair_coeff 2 2 0.5 0.88 2.2
pair_modify shift yes
reset_timestep 0

print "Setting up equilibration run"
Setting up equilibration run
variable dumptime2 equal ${steps}/2000
variable dumptime2 equal 30000000/2000
dump 1 all dcd ${dumptime2} ${basename}.unwrap.dcd
dump 1 all dcd 15000 ${basename}.unwrap.dcd
dump 1 all dcd 15000 prod/kalj_T0.475_n360_v300_prod_30000000_1.unwrap.dcd
#dump 2 all dcd ${dumptime2} ${basename}.dcd
dump_modify 1 unwrap yes
#dump_modify 2 unwrap no

restart ${restarttime} ${basename}.restart
restart 30000000 ${basename}.restart
restart 30000000 prod/kalj_T0.475_n360_v300_prod_30000000_1.restart
restart ${steps} ${basename}.final.lmprestart
restart 30000000 ${basename}.final.lmprestart
restart 30000000 prod/kalj_T0.475_n360_v300_prod_30000000_1.final.lmprestart

thermo ${thermotime}
thermo 300000
timestep ${timestep}
timestep 0.003

neighbor 0.5 bin
neigh_modify every 1 delay ${neighborstep} check yes
neigh_modify every 1 delay 25 check yes

#velocity all create ${temp} ${id} dist gaussian
fix 1 all nvt temp ${temp} ${temp} ${taut}
fix 1 all nvt temp 0.475 ${temp} ${taut}
fix 1 all nvt temp 0.475 0.475 ${taut}
fix 1 all nvt temp 0.475 0.475 0.3
Resetting global fix info from restart file:
  fix style: nvt, fix ID: 1

variable steps4 equal ${steps}/4
variable steps4 equal 30000000/4
run ${steps4}
run 7500000
Generated 0 of 1 mixed pair_coeff terms from geometric mixing rule
All restart file global fix info was re-assigned
Neighbor list info ...
  update: every = 1 steps, delay = 25 steps, check = yes
  max neighbors/atom: 2000, page size: 100000
  master list distance cutoff = 3
  ghost atom cutoff = 3
  binsize = 1.5, bins = 5 5 5
  1 neighbor lists, perpetual/occasional/extra = 1 0 0
  (1) pair lj/cut, perpetual
      attributes: half, newton on
      pair build: half/bin/atomonly/newton
      stencil: half/bin/3d
      bin: standard
Per MPI rank memory allocation (min/avg/max) = 2.981 | 2.981 | 2.981 Mbytes
   Step          Temp          E_pair         E_mol          TotEng         Press     
         0   0.48143047    -6.9477261      0             -6.2275864      3.4486723    
    300000   0.46429599    -6.9553209      0             -6.2608115      3.5251111    
    600000   0.48956789    -6.9735718      0             -6.2412598      3.3870479    
    900000   0.48512435    -7.0076292      0             -6.281964       3.1037478    
   1200000   0.45089356    -6.9982415      0             -6.3237799      3.0907392    
   1500000   0.48115918    -6.9564656      0             -6.2367316      3.356593     
   1800000   0.47518852    -7.0328614      0             -6.3220586      3.0055876    
   2100000   0.45107285    -6.9736284      0             -6.2988986      3.3650897    
   2400000   0.47984349    -6.977576       0             -6.2598102      3.1869767    
   2700000   0.48498446    -6.9750042      0             -6.2495483      3.27286      
   3000000   0.47518425    -6.9916235      0             -6.280827       3.1446053    
   3300000   0.44736346    -7.0085966      0             -6.3394154      2.9949148    
   3600000   0.4672032     -6.973912       0             -6.2750539      3.2112851    
   3900000   0.47180231    -7.009748       0             -6.3040104      3.0856325    
   4200000   0.43214592    -6.9307753      0             -6.2843571      3.5389695    
   4500000   0.47016102    -7.006891       0             -6.3036085      3.098839     
   4800000   0.48183127    -7.0094501      0             -6.2887108      3.1498986    
   5100000   0.48291679    -6.9864362      0             -6.2640732      3.1657443    
   5400000   0.45115434    -6.919746       0             -6.2448943      3.6213795    
   5700000   0.48653621    -6.9700778      0             -6.2423007      3.3846732    
   6000000   0.46382007    -6.8781871      0             -6.1843895      3.7460814    
   6300000   0.45305       -7.0140748      0             -6.3363875      2.9503687    
   6600000   0.47209928    -6.9638646      0             -6.2576828      3.0976134    
   6900000   0.49477555    -6.9808724      0             -6.2407706      3.3063316    
   7200000   0.48476311    -6.9371701      0             -6.2120452      3.5113979    
   7500000   0.49403619    -6.9472861      0             -6.2082903      3.5055954    
Loop time of 459.93 on 64 procs for 7500000 steps with 360 atoms

Performance: 4226731.779 tau/day, 16306.836 timesteps/s, 5.870 Matom-step/s
99.7% CPU use with 64 MPI tasks x 1 OpenMP threads

MPI task timing breakdown:
Section |  min time  |  avg time  |  max time  |%varavg| %total
---------------------------------------------------------------
Pair    | 15.852     | 18.221     | 21.466     |  27.7 |  3.96
Neigh   | 2.615      | 2.8808     | 3.1715     |   7.0 |  0.63
Comm    | 337.25     | 351.99     | 366.74     |  47.0 | 76.53
Output  | 0.12465    | 0.17427    | 0.23743    |   7.7 |  0.04
Modify  | 50.088     | 66.399     | 78.573     | 110.4 | 14.44
Other   |            | 20.26      |            |       |  4.41

Nlocal:          5.625 ave           9 max           3 min
Histogram: 3 6 0 20 0 22 11 0 0 2
Nghost:         538.25 ave         548 max         526 min
Histogram: 3 5 2 4 11 11 8 6 6 8
Neighs:        326.031 ave         535 max         178 min
Histogram: 4 5 8 13 13 11 6 2 0 2

Total # of neighbors = 20866
Ave neighs/atom = 57.961111
Neighbor list builds = 192737
Dangerous builds = 261
Total wall time: 0:07:41
