
include ${pot}.lmp
include kalj.lmp
units lj
atom_style atomic

variable dimensions equal 3
variable density equal 1.2
variable fraca equal 0.8

dimension ${dimensions}
dimension 3
read_restart ${prevbasename}.final.lmprestart.${steps}
read_restart equil/kalj_T1_n360_v300_50000_1.final.lmprestart.${steps}
read_restart equil/kalj_T1_n360_v300_50000_1.final.lmprestart.50000
Reading restart file ...
  restart file = 15 Sep 2022, LAMMPS = 15 Sep 2022
  restoring atom style atomic from restart
  orthogonal box = (0 0 0) to (6.6943295 6.6943295 6.6943295)
  4 by 4 by 4 MPI processor grid
  restoring pair style lj/cut from restart
  360 atoms
  read_restart CPU = 0.033 seconds
include ${pot}_particles.lmp
include kalj_particles.lmp
mass * 1.0 #  set mass 1.0 for all types

pair_style lj/cut 2.5
#pair coeffs type1 type2 eps sigma
pair_coeff 1 1 1.0 1.00 2.5
pair_coeff 1 2 1.5 0.80 2.0
pair_coeff 2 2 0.5 0.88 2.2
pair_modify shift yes
reset_timestep 0

print "Setting up equilibration run"
Setting up equilibration run
variable dumptime2 equal ${steps}/2000
variable dumptime2 equal 50000/2000
dump 1 all dcd ${dumptime2} ${basename}.unwrap.dcd
dump 1 all dcd 25 ${basename}.unwrap.dcd
dump 1 all dcd 25 prod/kalj_T1_n360_v300_prod_50000_1.unwrap.dcd
#dump 2 all dcd ${dumptime2} ${basename}.dcd
dump_modify 1 unwrap yes
#dump_modify 2 unwrap no

restart ${restarttime} ${basename}.restart
restart 30000 ${basename}.restart
restart 30000 prod/kalj_T1_n360_v300_prod_50000_1.restart
restart ${steps} ${basename}.final.lmprestart
restart 50000 ${basename}.final.lmprestart
restart 50000 prod/kalj_T1_n360_v300_prod_50000_1.final.lmprestart

thermo ${thermotime}
thermo 2000
timestep ${timestep}
timestep 0.002

neighbor 0.5 bin
neigh_modify every 1 delay ${neighborstep} check yes
neigh_modify every 1 delay 20 check yes

#velocity all create ${temp} ${id} dist gaussian
fix 1 all nvt temp ${temp} ${temp} ${taut}
fix 1 all nvt temp 1 ${temp} ${taut}
fix 1 all nvt temp 1 1 ${taut}
fix 1 all nvt temp 1 1 0.2
Resetting global fix info from restart file:
  fix style: nvt, fix ID: 1

variable steps4 equal ${steps}/4
variable steps4 equal 50000/4
run ${steps4}
run 12500
Generated 0 of 1 mixed pair_coeff terms from geometric mixing rule
All restart file global fix info was re-assigned
Neighbor list info ...
  update: every = 1 steps, delay = 20 steps, check = yes
  max neighbors/atom: 2000, page size: 100000
  master list distance cutoff = 3
  ghost atom cutoff = 3
  binsize = 1.5, bins = 5 5 5
  1 neighbor lists, perpetual/occasional/extra = 1 0 0
  (1) pair lj/cut, perpetual
      attributes: half, newton on
      pair build: half/bin/atomonly/newton
      stencil: half/bin/3d
      bin: standard
Per MPI rank memory allocation (min/avg/max) = 2.981 | 2.981 | 2.981 Mbytes
   Step          Temp          E_pair         E_mol          TotEng         Press     
         0   1.0406923     -5.9300831      0             -4.373381       10.429671    
      2000   1.0341019     -6.1030799      0             -4.5562358      9.5397468    
      4000   0.98952364    -6.1818342      0             -4.7016718      8.7856223    
      6000   1.0579971     -6.0582559      0             -4.4756686      9.6506896    
      8000   1.0791505     -6.0262002      0             -4.4119709      9.89608      
     10000   0.99371428    -6.1012954      0             -4.6148644      9.5179803    
     12000   1.0454102     -5.9611631      0             -4.3974036      10.310631    
     12500   0.95393877    -6.0078828      0             -4.5809494      9.8908798    
Loop time of 0.959424 on 64 procs for 12500 steps with 360 atoms

Performance: 2251351.383 tau/day, 13028.654 timesteps/s, 4.690 Matom-step/s
99.5% CPU use with 64 MPI tasks x 1 OpenMP threads

MPI task timing breakdown:
Section |  min time  |  avg time  |  max time  |%varavg| %total
---------------------------------------------------------------
Pair    | 0.026595   | 0.030633   | 0.033502   |   0.9 |  3.19
Neigh   | 0.0047662  | 0.005236   | 0.0056976  |   0.3 |  0.55
Comm    | 0.59705    | 0.64485    | 0.68338    |   2.7 | 67.21
Output  | 0.052079   | 0.094644   | 0.14686    |   9.2 |  9.86
Modify  | 0.090711   | 0.11893    | 0.13978    |   4.2 | 12.40
Other   |            | 0.06512    |            |       |  6.79

Nlocal:          5.625 ave           8 max           2 min
Histogram: 1 2 0 7 0 17 24 0 9 4
Nghost:        537.891 ave         554 max         525 min
Histogram: 3 4 6 14 11 11 11 1 2 1
Neighs:        324.297 ave         466 max         124 min
Histogram: 2 0 4 6 7 10 17 9 7 2

Total # of neighbors = 20755
Ave neighs/atom = 57.652778
Neighbor list builds = 343
Dangerous builds = 0
Total wall time: 0:00:02
