
include ${pot}.lmp
include kalj.lmp
units lj
atom_style atomic

variable dimensions equal 3
variable density equal 1.2
variable fraca equal 0.8

dimension ${dimensions}
dimension 3
read_restart ${prevbasename}.final.lmprestart.${prevsteps}
read_restart equil/kalj_T1.5_n360_v300_10000_2.final.lmprestart.${prevsteps}
read_restart equil/kalj_T1.5_n360_v300_10000_2.final.lmprestart.10000
Reading restart file ...
  restart file = 15 Sep 2022, LAMMPS = 15 Sep 2022
  restoring atom style atomic from restart
  orthogonal box = (0 0 0) to (6.6943295 6.6943295 6.6943295)
  3 by 4 by 4 MPI processor grid
  restoring pair style lj/cut from restart
  360 atoms
  read_restart CPU = 0.042 seconds
include ${pot}_particles.lmp
include kalj_particles.lmp
mass * 1.0 #  set mass 1.0 for all types

pair_style lj/cut 2.5
#pair coeffs type1 type2 eps sigma
pair_coeff 1 1 1.0 1.00 2.5
pair_coeff 1 2 1.5 0.80 2.0
pair_coeff 2 2 0.5 0.88 2.2
pair_modify shift yes
reset_timestep 0

print "Setting up annealing run"
Setting up annealing run
dump 1 all atom ${dumptime} ${basename}.lammpstrj
dump 1 all atom 10000 ${basename}.lammpstrj
dump 1 all atom 10000 equil/kalj_T1_n360_v300_50000_2.lammpstrj
#dump_modify 1 sort id scale no

restart ${restarttime} ${basename}.restart
restart 30000 ${basename}.restart
restart 30000 equil/kalj_T1_n360_v300_50000_2.restart
restart ${steps} ${basename}.final.lmprestart
restart 50000 ${basename}.final.lmprestart
restart 50000 equil/kalj_T1_n360_v300_50000_2.final.lmprestart

thermo ${thermotime}
thermo 2000
timestep ${timestep}
timestep 0.002

neighbor 0.5 bin
neigh_modify every 1 delay ${neighborstep} check yes
neigh_modify every 1 delay 20 check yes

velocity all create ${temp} ${id} dist gaussian
velocity all create 1 ${id} dist gaussian
velocity all create 1 2 dist gaussian
fix 1 all nvt temp ${temp} ${temp} ${taut}
fix 1 all nvt temp 1 ${temp} ${taut}
fix 1 all nvt temp 1 1 ${taut}
fix 1 all nvt temp 1 1 0.2
Resetting global fix info from restart file:
  fix style: nvt, fix ID: 1
run ${steps}
run 50000
Generated 0 of 1 mixed pair_coeff terms from geometric mixing rule
All restart file global fix info was re-assigned
Neighbor list info ...
  update: every = 1 steps, delay = 20 steps, check = yes
  max neighbors/atom: 2000, page size: 100000
  master list distance cutoff = 3
  ghost atom cutoff = 3
  binsize = 1.5, bins = 5 5 5
  1 neighbor lists, perpetual/occasional/extra = 1 0 0
  (1) pair lj/cut, perpetual
      attributes: half, newton on
      pair build: half/bin/atomonly/newton
      stencil: half/bin/3d
      bin: standard
Per MPI rank memory allocation (min/avg/max) = 3.961 | 3.961 | 3.961 Mbytes
   Step          Temp          E_pair         E_mol          TotEng         Press     
         0   1             -5.3535433      0             -3.85771        13.812374    
      2000   0.94512295    -6.0296897      0             -4.6159433      9.813922     
      4000   0.94938897    -5.9989291      0             -4.5788014      9.7873632    
      6000   1.0200901     -5.8814467      0             -4.3555619      10.667174    
      8000   0.93010427    -5.97606        0             -4.5847791      10.073614    
     10000   1.0461492     -5.9021909      0             -4.337326       10.682743    
     12000   1.021937      -5.9862168      0             -4.4575695      10.208859    
     14000   0.97093327    -5.9952683      0             -4.5429139      9.9321256    
     16000   1.0046268     -6.0537631      0             -4.5510088      9.6256034    
     18000   1.0685442     -5.9104247      0             -4.3120606      10.611845    
     20000   0.9292369     -5.9433669      0             -4.5533834      10.117972    
     22000   1.0017915     -5.9649819      0             -4.4664689      10.268421    
     24000   1.0110182     -5.9960737      0             -4.483759       9.9963885    
     26000   1.0230242     -6.0013128      0             -4.4710391      9.9540946    
     28000   1.0588601     -6.0196055      0             -4.4357274      9.8074483    
     30000   0.99134792    -6.078071       0             -4.5951797      9.448229     
     32000   0.96245435    -6.0716081      0             -4.6319368      9.5533307    
     34000   1.0361332     -5.9357972      0             -4.3859146      10.347216    
     36000   1.0090493     -5.9711487      0             -4.4617791      10.155463    
     38000   0.98120045    -6.066467       0             -4.5987547      9.5322566    
     40000   1.0237903     -6.001609       0             -4.4701894      9.9742675    
     42000   1.0247132     -6.0078138      0             -4.4750136      10.021455    
     44000   0.96526014    -5.983328       0             -4.5394597      9.9941467    
     46000   0.93034592    -5.9731907      0             -4.5815483      10.02987     
     48000   1.039234      -5.941793       0             -4.3872722      10.313309    
     50000   1.0099194     -6.0159959      0             -4.5053248      9.9259917    
Loop time of 2.40556 on 48 procs for 50000 steps with 360 atoms

Performance: 3591676.056 tau/day, 20785.162 timesteps/s, 7.483 Matom-step/s
99.6% CPU use with 48 MPI tasks x 1 OpenMP threads

MPI task timing breakdown:
Section |  min time  |  avg time  |  max time  |%varavg| %total
---------------------------------------------------------------
Pair    | 0.14548    | 0.16249    | 0.18494    |   1.9 |  6.75
Neigh   | 0.023662   | 0.025625   | 0.028532   |   0.6 |  1.07
Comm    | 1.7503     | 1.8097     | 1.8818     |   2.6 | 75.23
Output  | 0.0039201  | 0.0039348  | 0.004116   |   0.0 |  0.16
Modify  | 0.22037    | 0.29398    | 0.34494    |   5.7 | 12.22
Other   |            | 0.1098     |            |       |  4.57

Nlocal:            7.5 ave          11 max           5 min
Histogram: 4 8 0 10 0 18 4 0 2 2
Nghost:        572.521 ave         584 max         557 min
Histogram: 1 1 1 5 9 10 7 8 4 2
Neighs:        433.062 ave         634 max         230 min
Histogram: 1 2 7 5 8 11 7 2 2 3

Total # of neighbors = 20787
Ave neighs/atom = 57.741667
Neighbor list builds = 1366
Dangerous builds = 0
Total wall time: 0:00:03
