
include ${pot}.lmp
include kalj.lmp
units lj
atom_style atomic

variable dimensions equal 3
variable density equal 1.2
variable fraca equal 0.8

dimension ${dimensions}
dimension 3
read_restart ${prevbasename}.final.lmprestart.${prevsteps}
read_restart equil/kalj_T0.9_n360_v300_150000_2.final.lmprestart.${prevsteps}
read_restart equil/kalj_T0.9_n360_v300_150000_2.final.lmprestart.150000
Reading restart file ...
  restart file = 15 Sep 2022, LAMMPS = 15 Sep 2022
  restoring atom style atomic from restart
  orthogonal box = (0 0 0) to (6.6943295 6.6943295 6.6943295)
  3 by 4 by 4 MPI processor grid
  restoring pair style lj/cut from restart
  360 atoms
  read_restart CPU = 0.042 seconds
include ${pot}_particles.lmp
include kalj_particles.lmp
mass * 1.0 #  set mass 1.0 for all types

pair_style lj/cut 2.5
#pair coeffs type1 type2 eps sigma
pair_coeff 1 1 1.0 1.00 2.5
pair_coeff 1 2 1.5 0.80 2.0
pair_coeff 2 2 0.5 0.88 2.2
pair_modify shift yes
reset_timestep 0

print "Setting up annealing run"
Setting up annealing run
dump 1 all atom ${dumptime} ${basename}.lammpstrj
dump 1 all atom 50000 ${basename}.lammpstrj
dump 1 all atom 50000 equil/kalj_T0.8_n360_v300_150000_2.lammpstrj
#dump_modify 1 sort id scale no

restart ${restarttime} ${basename}.restart
restart 150000 ${basename}.restart
restart 150000 equil/kalj_T0.8_n360_v300_150000_2.restart
restart ${steps} ${basename}.final.lmprestart
restart 150000 ${basename}.final.lmprestart
restart 150000 equil/kalj_T0.8_n360_v300_150000_2.final.lmprestart

thermo ${thermotime}
thermo 5000
timestep ${timestep}
timestep 0.002

neighbor 0.5 bin
neigh_modify every 1 delay ${neighborstep} check yes
neigh_modify every 1 delay 25 check yes

velocity all create ${temp} ${id} dist gaussian
velocity all create 0.8 ${id} dist gaussian
velocity all create 0.8 2 dist gaussian
fix 1 all nvt temp ${temp} ${temp} ${taut}
fix 1 all nvt temp 0.8 ${temp} ${taut}
fix 1 all nvt temp 0.8 0.8 ${taut}
fix 1 all nvt temp 0.8 0.8 0.2
Resetting global fix info from restart file:
  fix style: nvt, fix ID: 1
run ${steps}
run 150000
Generated 0 of 1 mixed pair_coeff terms from geometric mixing rule
All restart file global fix info was re-assigned
Neighbor list info ...
  update: every = 1 steps, delay = 25 steps, check = yes
  max neighbors/atom: 2000, page size: 100000
  master list distance cutoff = 3
  ghost atom cutoff = 3
  binsize = 1.5, bins = 5 5 5
  1 neighbor lists, perpetual/occasional/extra = 1 0 0
  (1) pair lj/cut, perpetual
      attributes: half, newton on
      pair build: half/bin/atomonly/newton
      stencil: half/bin/3d
      bin: standard
Per MPI rank memory allocation (min/avg/max) = 3.961 | 3.961 | 3.961 Mbytes
   Step          Temp          E_pair         E_mol          TotEng         Press     
         0   0.8           -6.1383837      0             -4.941717       8.8064239    
      5000   0.80933908    -6.3451721      0             -5.1345358      7.5655718    
     10000   0.81256539    -6.4040191      0             -5.1885567      7.1281661    
     15000   0.80349553    -6.3638407      0             -5.1619453      7.4754962    
     20000   0.89221256    -6.3545321      0             -5.0199308      7.4447329    
     25000   0.84222268    -6.3142671      0             -5.0544424      7.845843     
     30000   0.77317586    -6.3254393      0             -5.168897       7.5022915    
     35000   0.80942391    -6.3711641      0             -5.1604008      7.4014786    
     40000   0.78876643    -6.2735368      0             -5.0936737      8.1626077    
     45000   0.82039789    -6.3184651      0             -5.0912866      7.6701016    
     50000   0.79042994    -6.3110692      0             -5.1287178      7.8836255    
     55000   0.78712091    -6.3463967      0             -5.168995       7.8173323    
     60000   0.75660694    -6.3464951      0             -5.2147372      7.5299835    
     65000   0.79937861    -6.3312949      0             -5.1355577      7.6299796    
     70000   0.75705269    -6.3612212      0             -5.2287966      7.4208491    
     75000   0.78488501    -6.3842764      0             -5.2102192      7.3416424    
     80000   0.79003291    -6.4063667      0             -5.2246091      7.453437     
     85000   0.80564556    -6.2951948      0             -5.0900833      7.8986452    
     90000   0.7595269     -6.3690927      0             -5.2329671      7.2120795    
     95000   0.84521831    -6.4146788      0             -5.1503731      7.0636349    
    100000   0.74209762    -6.3854302      0             -5.2753758      7.3368362    
    105000   0.79296322    -6.3256826      0             -5.1395418      7.7084624    
    110000   0.8398717     -6.3198287      0             -5.0635206      7.7433791    
    115000   0.74516648    -6.2761024      0             -5.1614575      8.0196845    
    120000   0.83101202    -6.3275299      0             -5.0844744      7.7364973    
    125000   0.79255249    -6.3678875      0             -5.1823611      7.4454869    
    130000   0.74840776    -6.4776752      0             -5.3581819      6.8168356    
    135000   0.77769583    -6.317537       0             -5.1542337      7.5947211    
    140000   0.82645639    -6.401463       0             -5.165222       7.2154135    
    145000   0.81818498    -6.2729273      0             -5.0490589      8.0543845    
    150000   0.79823559    -6.3574568      0             -5.1634294      7.5414487    
Loop time of 7.27052 on 48 procs for 150000 steps with 360 atoms

Performance: 3565084.378 tau/day, 20631.275 timesteps/s, 7.427 Matom-step/s
99.6% CPU use with 48 MPI tasks x 1 OpenMP threads

MPI task timing breakdown:
Section |  min time  |  avg time  |  max time  |%varavg| %total
---------------------------------------------------------------
Pair    | 0.44662    | 0.48109    | 0.50723    |   2.0 |  6.62
Neigh   | 0.062782   | 0.066958   | 0.071907   |   0.7 |  0.92
Comm    | 5.3083     | 5.4719     | 5.6633     |   4.1 | 75.26
Output  | 0.0043985  | 0.0044141  | 0.0045702  |   0.0 |  0.06
Modify  | 0.77847    | 0.96181    | 1.1282     |   9.3 | 13.23
Other   |            | 0.2844     |            |       |  3.91

Nlocal:            7.5 ave          11 max           4 min
Histogram: 1 3 7 0 13 13 0 7 3 1
Nghost:        581.729 ave         595 max         569 min
Histogram: 2 6 5 10 1 4 11 2 4 3
Neighs:        433.604 ave         625 max         231 min
Histogram: 3 2 3 4 9 8 10 8 0 1

Total # of neighbors = 20813
Ave neighs/atom = 57.813889
Neighbor list builds = 3582
Dangerous builds = 0
Total wall time: 0:00:08
