
include ${pot}.lmp
include kalj.lmp
units lj
atom_style atomic

variable dimensions equal 3
variable density equal 1.2
variable fraca equal 0.8

dimension ${dimensions}
dimension 3
read_restart ${prevbasename}.final.lmprestart.${prevsteps}
read_restart equil/kalj_T0.5_n360_v300_10000000_2.final.lmprestart.${prevsteps}
read_restart equil/kalj_T0.5_n360_v300_10000000_2.final.lmprestart.10000000
Reading restart file ...
  restart file = 15 Sep 2022, LAMMPS = 15 Sep 2022
  restoring atom style atomic from restart
  orthogonal box = (0 0 0) to (6.6943295 6.6943295 6.6943295)
  3 by 4 by 4 MPI processor grid
  restoring pair style lj/cut from restart
  360 atoms
  read_restart CPU = 0.042 seconds
include ${pot}_particles.lmp
include kalj_particles.lmp
mass * 1.0 #  set mass 1.0 for all types

pair_style lj/cut 2.5
#pair coeffs type1 type2 eps sigma
pair_coeff 1 1 1.0 1.00 2.5
pair_coeff 1 2 1.5 0.80 2.0
pair_coeff 2 2 0.5 0.88 2.2
pair_modify shift yes
reset_timestep 0

print "Setting up annealing run"
Setting up annealing run
dump 1 all atom ${dumptime} ${basename}.lammpstrj
dump 1 all atom 3000000 ${basename}.lammpstrj
dump 1 all atom 3000000 equil/kalj_T0.475_n360_v300_30000000_2.lammpstrj
#dump_modify 1 sort id scale no

restart ${restarttime} ${basename}.restart
restart 30000000 ${basename}.restart
restart 30000000 equil/kalj_T0.475_n360_v300_30000000_2.restart
restart ${steps} ${basename}.final.lmprestart
restart 30000000 ${basename}.final.lmprestart
restart 30000000 equil/kalj_T0.475_n360_v300_30000000_2.final.lmprestart

thermo ${thermotime}
thermo 300000
timestep ${timestep}
timestep 0.003

neighbor 0.5 bin
neigh_modify every 1 delay ${neighborstep} check yes
neigh_modify every 1 delay 25 check yes

velocity all create ${temp} ${id} dist gaussian
velocity all create 0.475 ${id} dist gaussian
velocity all create 0.475 2 dist gaussian
fix 1 all nvt temp ${temp} ${temp} ${taut}
fix 1 all nvt temp 0.475 ${temp} ${taut}
fix 1 all nvt temp 0.475 0.475 ${taut}
fix 1 all nvt temp 0.475 0.475 0.3
Resetting global fix info from restart file:
  fix style: nvt, fix ID: 1
run ${steps}
run 30000000
Generated 0 of 1 mixed pair_coeff terms from geometric mixing rule
All restart file global fix info was re-assigned
Neighbor list info ...
  update: every = 1 steps, delay = 25 steps, check = yes
  max neighbors/atom: 2000, page size: 100000
  master list distance cutoff = 3
  ghost atom cutoff = 3
  binsize = 1.5, bins = 5 5 5
  1 neighbor lists, perpetual/occasional/extra = 1 0 0
  (1) pair lj/cut, perpetual
      attributes: half, newton on
      pair build: half/bin/atomonly/newton
      stencil: half/bin/3d
      bin: standard
Per MPI rank memory allocation (min/avg/max) = 3.961 | 3.961 | 3.961 Mbytes
   Step          Temp          E_pair         E_mol          TotEng         Press     
         0   0.475         -6.8909834      0             -6.1804625      3.8743219    
    300000   0.46280577    -6.9264607      0             -6.2341804      3.5832678    
    600000   0.4296182     -6.96744        0             -6.3248028      3.3376236    
    900000   0.4834557     -6.9508965      0             -6.2277273      3.449928     
   1200000   0.46108017    -6.9186816      0             -6.2289825      3.7014118    
   1500000   0.41589168    -6.9579019      0             -6.3357973      3.5236175    
   1800000   0.45436776    -6.9887376      0             -6.3090792      3.2448934    
   2100000   0.46735076    -6.9491153      0             -6.2500364      3.5731466    
   2400000   0.46205747    -6.9810379      0             -6.289877       3.2064021    
   2700000   0.52316067    -6.9258685      0             -6.1433074      3.7794074    
   3000000   0.46021645    -6.9113264      0             -6.2229193      3.5303362    
   3300000   0.46239725    -6.9779185      0             -6.2862493      3.2488766    
   3600000   0.50326518    -6.9391501      0             -6.1863493      3.4834288    
   3900000   0.45793956    -6.9846341      0             -6.2996329      3.1221688    
   4200000   0.50105624    -6.9490758      0             -6.1995792      3.7141157    
   4500000   0.49210399    -6.9911189      0             -6.2550133      3.1895271    
   4800000   0.46527428    -6.9750574      0             -6.2790846      3.2931213    
   5100000   0.48491087    -6.9781903      0             -6.2528444      3.1848557    
   5400000   0.50927653    -6.9814114      0             -6.2196186      3.3209396    
   5700000   0.4681006     -6.9502221      0             -6.2500216      3.4664056    
   6000000   0.46838069    -6.9470297      0             -6.2464103      3.4945747    
   6300000   0.48713653    -6.9825252      0             -6.2538502      3.2167484    
   6600000   0.46245195    -6.9468037      0             -6.2550526      3.4437529    
   6900000   0.46812163    -6.9618058      0             -6.2615739      3.2162533    
   7200000   0.44219502    -6.9679782      0             -6.3065282      3.2619293    
   7500000   0.48204919    -7.0115685      0             -6.2905033      2.9580802    
   7800000   0.43580005    -6.9766322      0             -6.324748       3.4471852    
   8100000   0.49873276    -6.968249       0             -6.2222279      3.5205126    
   8400000   0.47517228    -6.9438137      0             -6.2330351      3.4701188    
   8700000   0.47609941    -6.9732684      0             -6.2611031      3.3968028    
   9000000   0.47742151    -6.9120307      0             -6.1978877      3.5977796    
   9300000   0.47429963    -6.9569936      0             -6.2475204      3.330055     
   9600000   0.48593858    -6.9646128      0             -6.2377297      3.3378156    
   9900000   0.49023076    -7.0111766      0             -6.2778731      3.1774037    
  10200000   0.47183686    -7.0032579      0             -6.2974686      3.0323873    
  10500000   0.47020922    -6.9236859      0             -6.2203313      3.6372006    
  10800000   0.46932199    -6.9316582      0             -6.2296307      3.6329       
  11100000   0.43560075    -6.9165877      0             -6.2650016      3.6698413    
  11400000   0.45874693    -6.9423828      0             -6.2561738      3.4003488    
  11700000   0.4698613     -6.9477502      0             -6.244916       3.4185808    
  12000000   0.54654829    -6.9510992      0             -6.1335541      3.7800949    
  12300000   0.47295941    -6.9961352      0             -6.2886668      3.1742808    
  12600000   0.43866019    -6.9990708      0             -6.3429083      3.1007022    
  12900000   0.48098065    -7.053845       0             -6.3343781      3.0444626    
  13200000   0.4916278     -7.0112642      0             -6.275871       3.1044278    
  13500000   0.46208011    -6.9371589      0             -6.2459641      3.5030343    
  13800000   0.48357851    -6.9772747      0             -6.2539218      3.2002458    
  14100000   0.45475942    -6.9037597      0             -6.2235154      3.657025     
  14400000   0.46832699    -6.9296446      0             -6.2291054      3.6354411    
  14700000   0.45171457    -6.9466779      0             -6.2709882      3.3676204    
  15000000   0.44953348    -6.9615312      0             -6.289104       3.3218237    
  15300000   0.45169473    -6.9377763      0             -6.2621163      3.5601121    
  15600000   0.47554183    -6.917752       0             -6.2064207      3.6863287    
  15900000   0.46893605    -6.9350142      0             -6.233564       3.455462     
  16200000   0.46863797    -6.9737428      0             -6.2727385      3.3588715    
  16500000   0.49918073    -6.9670731      0             -6.2203819      3.4562052    
  16800000   0.49372353    -6.9660172      0             -6.2274891      3.3906763    
  17100000   0.45974079    -6.9931507      0             -6.3054551      3.3178699    
  17400000   0.46418682    -7.0053812      0             -6.3110351      3.1682031    
  17700000   0.48439357    -6.9222539      0             -6.1976818      3.7727825    
  18000000   0.49908121    -6.944717       0             -6.1981747      3.5109524    
  18300000   0.48369675    -6.9270834      0             -6.2035537      3.6926107    
  18600000   0.45361453    -6.9435901      0             -6.2650584      3.5541837    
  18900000   0.47762532    -7.0282317      0             -6.3137839      2.9417286    
  19200000   0.45945541    -6.940393       0             -6.2531242      3.530807     
  19500000   0.48748582    -6.9269113      0             -6.1977138      3.566322     
  19800000   0.47893932    -6.880308       0             -6.1638946      3.9453299    
  20100000   0.48769014    -6.9888018      0             -6.2592986      3.3129701    
  20400000   0.48726273    -7.0271182      0             -6.2982544      3.054607     
  20700000   0.46851245    -6.9665964      0             -6.2657799      3.2991005    
  21000000   0.4657877     -6.9391158      0             -6.242375       3.6099901    
  21300000   0.48336823    -6.9486066      0             -6.2255683      3.5398319    
  21600000   0.47078643    -6.9297377      0             -6.2255197      3.7765079    
  21900000   0.46735004    -6.9318435      0             -6.2327658      3.592759     
  22200000   0.43566351    -6.9509497      0             -6.2992697      3.4504662    
  22500000   0.4651456     -7.0174817      0             -6.3217014      2.8334816    
  22800000   0.50706144    -6.9648989      0             -6.2064195      3.5102757    
  23100000   0.48722237    -6.9782422      0             -6.2494387      3.2355937    
  23400000   0.45979377    -6.9390079      0             -6.251233       3.6154888    
  23700000   0.50148085    -6.9040123      0             -6.1538805      3.6965953    
  24000000   0.45966424    -6.9851298      0             -6.2975487      3.1147166    
  24300000   0.44748962    -6.9017526      0             -6.2323828      3.5779691    
  24600000   0.47892789    -6.9935341      0             -6.2771378      3.2090014    
  24900000   0.46616176    -6.966514       0             -6.2692137      3.3487118    
  25200000   0.47703227    -6.9403472      0             -6.2267864      3.6540124    
  25500000   0.43832776    -7.0047652      0             -6.3490999      3.1933583    
  25800000   0.45893367    -6.9783427      0             -6.2918544      3.2535995    
  26100000   0.4652834     -6.9476484      0             -6.251662       3.4529082    
  26400000   0.46534179    -6.9972807      0             -6.301207       3.0001495    
  26700000   0.47630071    -6.9061816      0             -6.1937151      3.7318617    
  27000000   0.46896028    -6.9204664      0             -6.21898        3.6346478    
  27300000   0.45566235    -6.9758287      0             -6.2942337      3.362033     
  27600000   0.49981968    -6.9759536      0             -6.2283066      3.2547245    
  27900000   0.46798704    -6.9538725      0             -6.2538419      3.4281879    
  28200000   0.45404097    -6.9486446      0             -6.269475       3.4260719    
  28500000   0.48432377    -6.9072065      0             -6.1827388      3.8028033    
  28800000   0.48044805    -6.9459744      0             -6.2273042      3.5192737    
  29100000   0.44840128    -6.934225       0             -6.2634915      3.6620503    
  29400000   0.45472229    -6.9177207      0             -6.237532       3.5855044    
  29700000   0.5020744     -6.9654991      0             -6.2144795      3.3897819    
  30000000   0.50518867    -6.9023676      0             -6.1466896      3.9719377    
Loop time of 1439.24 on 48 procs for 30000000 steps with 360 atoms

Performance: 5402860.242 tau/day, 20844.368 timesteps/s, 7.504 Matom-step/s
99.6% CPU use with 48 MPI tasks x 1 OpenMP threads

MPI task timing breakdown:
Section |  min time  |  avg time  |  max time  |%varavg| %total
---------------------------------------------------------------
Pair    | 91.728     | 96.819     | 111.13     |  35.0 |  6.73
Neigh   | 13.879     | 14.349     | 16.295     |   9.7 |  1.00
Comm    | 1063.8     | 1094.3     | 1135.9     |  58.2 | 76.03
Output  | 0.022069   | 0.02225    | 0.029359   |   0.7 |  0.00
Modify  | 143.43     | 182.63     | 213.2      | 147.5 | 12.69
Other   |            | 51.15      |            |       |  3.55

Nlocal:            7.5 ave          11 max           4 min
Histogram: 1 5 7 0 10 11 0 10 3 1
Nghost:        573.188 ave         587 max         561 min
Histogram: 1 5 6 7 9 9 3 3 2 3
Neighs:        433.688 ave         610 max         237 min
Histogram: 2 3 2 10 5 5 9 6 3 3

Total # of neighbors = 20817
Ave neighs/atom = 57.825
Neighbor list builds = 770075
Dangerous builds = 964
Total wall time: 0:24:00
