
include ${pot}.lmp
include kalj.lmp
units lj
atom_style atomic

variable dimensions equal 3
variable density equal 1.2
variable fraca equal 0.8

dimension ${dimensions}
dimension 3
read_restart ${prevbasename}.final.lmprestart.${prevsteps}
read_restart equil/kalj_T0.55_n360_v300_3000000_2.final.lmprestart.${prevsteps}
read_restart equil/kalj_T0.55_n360_v300_3000000_2.final.lmprestart.3000000
Reading restart file ...
  restart file = 15 Sep 2022, LAMMPS = 15 Sep 2022
  restoring atom style atomic from restart
  orthogonal box = (0 0 0) to (6.6943295 6.6943295 6.6943295)
  3 by 4 by 4 MPI processor grid
  restoring pair style lj/cut from restart
  360 atoms
  read_restart CPU = 0.031 seconds
include ${pot}_particles.lmp
include kalj_particles.lmp
mass * 1.0 #  set mass 1.0 for all types

pair_style lj/cut 2.5
#pair coeffs type1 type2 eps sigma
pair_coeff 1 1 1.0 1.00 2.5
pair_coeff 1 2 1.5 0.80 2.0
pair_coeff 2 2 0.5 0.88 2.2
pair_modify shift yes
reset_timestep 0

print "Setting up annealing run"
Setting up annealing run
dump 1 all atom ${dumptime} ${basename}.lammpstrj
dump 1 all atom 1000000 ${basename}.lammpstrj
dump 1 all atom 1000000 equil/kalj_T0.5_n360_v300_10000000_2.lammpstrj
#dump_modify 1 sort id scale no

restart ${restarttime} ${basename}.restart
restart 10000000 ${basename}.restart
restart 10000000 equil/kalj_T0.5_n360_v300_10000000_2.restart
restart ${steps} ${basename}.final.lmprestart
restart 10000000 ${basename}.final.lmprestart
restart 10000000 equil/kalj_T0.5_n360_v300_10000000_2.final.lmprestart

thermo ${thermotime}
thermo 100000
timestep ${timestep}
timestep 0.003

neighbor 0.5 bin
neigh_modify every 1 delay ${neighborstep} check yes
neigh_modify every 1 delay 25 check yes

velocity all create ${temp} ${id} dist gaussian
velocity all create 0.5 ${id} dist gaussian
velocity all create 0.5 2 dist gaussian
fix 1 all nvt temp ${temp} ${temp} ${taut}
fix 1 all nvt temp 0.5 ${temp} ${taut}
fix 1 all nvt temp 0.5 0.5 ${taut}
fix 1 all nvt temp 0.5 0.5 0.3
Resetting global fix info from restart file:
  fix style: nvt, fix ID: 1
run ${steps}
run 10000000
Generated 0 of 1 mixed pair_coeff terms from geometric mixing rule
All restart file global fix info was re-assigned
Neighbor list info ...
  update: every = 1 steps, delay = 25 steps, check = yes
  max neighbors/atom: 2000, page size: 100000
  master list distance cutoff = 3
  ghost atom cutoff = 3
  binsize = 1.5, bins = 5 5 5
  1 neighbor lists, perpetual/occasional/extra = 1 0 0
  (1) pair lj/cut, perpetual
      attributes: half, newton on
      pair build: half/bin/atomonly/newton
      stencil: half/bin/3d
      bin: standard
Per MPI rank memory allocation (min/avg/max) = 3.961 | 3.961 | 3.961 Mbytes
   Step          Temp          E_pair         E_mol          TotEng         Press     
         0   0.5           -6.8954542      0             -6.1475375      3.8990679    
    100000   0.4641487     -6.9549366      0             -6.2606475      3.4616265    
    200000   0.46651717    -6.9077994      0             -6.2099675      3.777633     
    300000   0.51564316    -6.9101993      0             -6.1388831      3.8345691    
    400000   0.47539956    -6.9356181      0             -6.2244995      3.5470248    
    500000   0.46252752    -6.9003884      0             -6.2085243      3.7360587    
    600000   0.53175392    -6.9139934      0             -6.1185782      3.778374     
    700000   0.52776199    -6.8632368      0             -6.0737928      3.914121     
    800000   0.49387414    -6.8539084      0             -6.1151551      4.0969674    
    900000   0.52340588    -6.8999534      0             -6.1170254      4.0325708    
   1000000   0.478196      -6.8486776      0             -6.1333761      4.1030345    
   1100000   0.50577967    -6.8898299      0             -6.1332678      3.8706825    
   1200000   0.48436911    -6.8685887      0             -6.1440533      4.1869482    
   1300000   0.52334818    -6.9363234      0             -6.1534817      3.5448922    
   1400000   0.49758669    -6.9514887      0             -6.2071819      3.4559577    
   1500000   0.51535998    -6.773372       0             -6.0024794      4.6798162    
   1600000   0.5191984     -6.8755231      0             -6.0988888      4.0305685    
   1700000   0.54266236    -6.8937095      0             -6.081977       4.027508     
   1800000   0.53333001    -6.8846189      0             -6.0868461      3.8991729    
   1900000   0.5233255     -6.8715717      0             -6.088764       3.9205681    
   2000000   0.5073426     -6.8879393      0             -6.1290394      3.8751075    
   2100000   0.49557488    -6.8477211      0             -6.1064236      4.2348223    
   2200000   0.47254964    -6.8535444      0             -6.1466889      4.105565     
   2300000   0.52646632    -6.8524137      0             -6.0649079      4.0310608    
   2400000   0.49720702    -6.9164098      0             -6.172671       3.659743     
   2500000   0.47567833    -6.9491319      0             -6.2375964      3.4836715    
   2600000   0.49730701    -6.8523442      0             -6.1084558      4.0718698    
   2700000   0.52318546    -6.8741184      0             -6.0915201      4.2844403    
   2800000   0.46285781    -6.8840567      0             -6.1916986      3.838035     
   2900000   0.51475478    -6.8912809      0             -6.1212936      3.8291291    
   3000000   0.51054116    -6.9741353      0             -6.2104509      3.3669326    
   3100000   0.4853214     -6.8942475      0             -6.1682876      3.8448608    
   3200000   0.51248135    -6.8940325      0             -6.1274459      3.8526284    
   3300000   0.49880326    -6.8776177      0             -6.1314911      3.9173205    
   3400000   0.47847068    -6.8067279      0             -6.0910155      4.335145     
   3500000   0.53997168    -6.9105302      0             -6.1028226      3.7138406    
   3600000   0.47217223    -6.8822535      0             -6.1759626      3.9817495    
   3700000   0.51696715    -6.9693983      0             -6.1961016      3.3483886    
   3800000   0.49435165    -6.900414       0             -6.1609463      3.7892196    
   3900000   0.50893767    -6.8949526      0             -6.1336667      3.8536456    
   4000000   0.48061132    -6.9264523      0             -6.2075379      3.6529854    
   4100000   0.53205571    -6.8534823      0             -6.0576157      4.0885217    
   4200000   0.50519014    -6.8661842      0             -6.1105039      4.1720064    
   4300000   0.54787134    -6.8722149      0             -6.0526907      4.1485145    
   4400000   0.49076414    -6.9128548      0             -6.1787535      3.7025507    
   4500000   0.5137042     -6.8998114      0             -6.1313955      3.9333719    
   4600000   0.49322345    -6.9371102      0             -6.1993302      3.6638131    
   4700000   0.51952832    -6.8996997      0             -6.1225719      3.9726176    
   4800000   0.50715014    -6.8326028      0             -6.0739907      4.0834762    
   4900000   0.4929871     -6.9047905      0             -6.1673639      3.8294732    
   5000000   0.49664815    -6.9053908      0             -6.162488       3.814147     
   5100000   0.50440909    -6.9612351      0             -6.2067231      3.4625247    
   5200000   0.48901045    -6.8728113      0             -6.1413332      3.9251737    
   5300000   0.50244679    -6.9516266      0             -6.2000499      3.5500156    
   5400000   0.52096859    -6.9193882      0             -6.140106       3.6512554    
   5500000   0.52229597    -6.8792662      0             -6.0979984      4.0012871    
   5600000   0.50588282    -6.9262846      0             -6.1695683      3.6379328    
   5700000   0.48983321    -6.8802967      0             -6.1475879      3.8419028    
   5800000   0.52992251    -6.8880983      0             -6.0954226      3.8397798    
   5900000   0.48741974    -6.9046406      0             -6.1755419      3.7715773    
   6000000   0.5224225     -6.8745868      0             -6.0931298      4.0404863    
   6100000   0.50056143    -6.9414485      0             -6.192692       3.5029155    
   6200000   0.50262463    -6.9238425      0             -6.1719998      3.5268525    
   6300000   0.50136556    -6.8937235      0             -6.1437642      3.8473217    
   6400000   0.48263648    -6.879583       0             -6.1576392      3.9812377    
   6500000   0.50954464    -6.9142497      0             -6.1520558      3.6247407    
   6600000   0.51010703    -6.8955763      0             -6.1325412      3.8188107    
   6700000   0.5047694     -6.8431091      0             -6.0880582      4.2154109    
   6800000   0.54833857    -6.914739       0             -6.0945159      3.8258863    
   6900000   0.49465154    -6.9339003      0             -6.193984       3.714335     
   7000000   0.51329173    -6.8832287      0             -6.1154299      3.8651747    
   7100000   0.50076975    -6.8751498      0             -6.1260817      4.0319691    
   7200000   0.51167806    -6.9106111      0             -6.145226       3.8065649    
   7300000   0.49196448    -6.9673133      0             -6.2314165      3.3173839    
   7400000   0.5112795     -6.9926138      0             -6.2278249      3.2004098    
   7500000   0.50496502    -6.8767225      0             -6.121379       3.8690392    
   7600000   0.50585007    -6.9340067      0             -6.1773393      3.6578647    
   7700000   0.45444105    -6.9360717      0             -6.2563036      3.4390682    
   7800000   0.51000994    -6.8959016      0             -6.1330117      3.8253452    
   7900000   0.4870295     -6.8745972      0             -6.1460823      3.8878187    
   8000000   0.50581394    -6.8399432      0             -6.0833299      4.112682     
   8100000   0.53281527    -6.8578077      0             -6.0608048      4.0321344    
   8200000   0.50218456    -6.8867813      0             -6.1355969      3.8659128    
   8300000   0.51703326    -6.9191114      0             -6.1457158      3.6620799    
   8400000   0.48578508    -6.9214838      0             -6.1948303      3.8022059    
   8500000   0.52604164    -6.8784909      0             -6.0916203      3.9900973    
   8600000   0.48367593    -6.9242833      0             -6.2007847      3.5174994    
   8700000   0.48086985    -6.9131289      0             -6.1938277      3.6354539    
   8800000   0.47462084    -6.9118678      0             -6.2019141      3.6923621    
   8900000   0.50868207    -6.9130598      0             -6.1521562      3.7424305    
   9000000   0.50008448    -6.9140803      0             -6.1660373      3.7823331    
   9100000   0.47988234    -6.9197396      0             -6.2019156      3.8094281    
   9200000   0.50993748    -6.9473125      0             -6.184531       3.6078106    
   9300000   0.48023765    -6.8720789      0             -6.1537234      3.8374582    
   9400000   0.46132793    -6.9502026      0             -6.260133       3.471753     
   9500000   0.48732277    -6.9487545      0             -6.2198009      3.5356372    
   9600000   0.51235571    -6.948061       0             -6.1816623      3.6135096    
   9700000   0.50985147    -6.8927996      0             -6.1301468      3.8232015    
   9800000   0.47297379    -6.8428628      0             -6.1353728      4.15678      
   9900000   0.48411855    -6.935374       0             -6.2112134      3.4999614    
  10000000   0.4959937     -6.8909834      0             -6.1490595      3.8994443    
Loop time of 477.05 on 48 procs for 10000000 steps with 360 atoms

Performance: 5433393.624 tau/day, 20962.167 timesteps/s, 7.546 Matom-step/s
99.6% CPU use with 48 MPI tasks x 1 OpenMP threads

MPI task timing breakdown:
Section |  min time  |  avg time  |  max time  |%varavg| %total
---------------------------------------------------------------
Pair    | 31.035     | 32.19      | 35.871     |  15.7 |  6.75
Neigh   | 4.7407     | 4.9493     | 5.2925     |   5.1 |  1.04
Comm    | 351.68     | 363.46     | 377.51     |  35.3 | 76.19
Output  | 0.010647   | 0.010965   | 0.024563   |   1.9 |  0.00
Modify  | 47.327     | 60.236     | 71.513     |  82.5 | 12.63
Other   |            | 16.21      |            |       |  3.40

Nlocal:            7.5 ave          10 max           5 min
Histogram: 3 0 6 0 17 0 10 0 10 2
Nghost:        583.708 ave         597 max         575 min
Histogram: 4 6 7 9 5 9 2 3 1 2
Neighs:        433.521 ave         603 max         271 min
Histogram: 3 1 4 9 8 7 9 3 3 1

Total # of neighbors = 20809
Ave neighs/atom = 57.802778
Neighbor list builds = 265664
Dangerous builds = 658
Total wall time: 0:07:58
