
include ${pot}.lmp
include kalj.lmp
units lj
atom_style atomic

variable dimensions equal 3
variable density equal 1.2
variable fraca equal 0.8

dimension ${dimensions}
dimension 3
read_restart ${prevbasename}.final.lmprestart.${prevsteps}
read_restart equil/kalj_T2_n360_v300_10000_2.final.lmprestart.${prevsteps}
read_restart equil/kalj_T2_n360_v300_10000_2.final.lmprestart.10000
Reading restart file ...
  restart file = 15 Sep 2022, LAMMPS = 15 Sep 2022
  restoring atom style atomic from restart
  orthogonal box = (0 0 0) to (6.6943295 6.6943295 6.6943295)
  3 by 4 by 4 MPI processor grid
  restoring pair style lj/cut from restart
  360 atoms
  read_restart CPU = 0.042 seconds
include ${pot}_particles.lmp
include kalj_particles.lmp
mass * 1.0 #  set mass 1.0 for all types

pair_style lj/cut 2.5
#pair coeffs type1 type2 eps sigma
pair_coeff 1 1 1.0 1.00 2.5
pair_coeff 1 2 1.5 0.80 2.0
pair_coeff 2 2 0.5 0.88 2.2
pair_modify shift yes
reset_timestep 0

print "Setting up annealing run"
Setting up annealing run
dump 1 all atom ${dumptime} ${basename}.lammpstrj
dump 1 all atom 10000 ${basename}.lammpstrj
dump 1 all atom 10000 equil/kalj_T1.5_n360_v300_10000_2.lammpstrj
#dump_modify 1 sort id scale no

restart ${restarttime} ${basename}.restart
restart 10000 ${basename}.restart
restart 10000 equil/kalj_T1.5_n360_v300_10000_2.restart
restart ${steps} ${basename}.final.lmprestart
restart 10000 ${basename}.final.lmprestart
restart 10000 equil/kalj_T1.5_n360_v300_10000_2.final.lmprestart

thermo ${thermotime}
thermo 1000
timestep ${timestep}
timestep 0.002

neighbor 0.5 bin
neigh_modify every 1 delay ${neighborstep} check yes
neigh_modify every 1 delay 20 check yes

velocity all create ${temp} ${id} dist gaussian
velocity all create 1.5 ${id} dist gaussian
velocity all create 1.5 2 dist gaussian
fix 1 all nvt temp ${temp} ${temp} ${taut}
fix 1 all nvt temp 1.5 ${temp} ${taut}
fix 1 all nvt temp 1.5 1.5 ${taut}
fix 1 all nvt temp 1.5 1.5 0.2
run ${steps}
run 10000
Generated 0 of 1 mixed pair_coeff terms from geometric mixing rule
Neighbor list info ...
  update: every = 1 steps, delay = 20 steps, check = yes
  max neighbors/atom: 2000, page size: 100000
  master list distance cutoff = 3
  ghost atom cutoff = 3
  binsize = 1.5, bins = 5 5 5
  1 neighbor lists, perpetual/occasional/extra = 1 0 0
  (1) pair lj/cut, perpetual
      attributes: half, newton on
      pair build: half/bin/atomonly/newton
      stencil: half/bin/3d
      bin: standard
Per MPI rank memory allocation (min/avg/max) = 3.961 | 3.961 | 3.961 Mbytes
   Step          Temp          E_pair         E_mol          TotEng         Press     
         0   1.5            6.2872555      0              8.5310055      80.502613    
      1000   1.6179292     -5.319872       0             -2.8997197      14.791843    
      2000   1.6371468     -5.1665091      0             -2.7176103      15.954963    
      3000   1.3797016     -5.4087618      0             -3.3449581      14.027983    
      4000   1.5503314     -5.0990166      0             -2.7799792      16.153219    
      5000   1.4729231     -5.2109756      0             -3.0077282      15.392794    
      6000   1.5890022     -5.2497157      0             -2.8728333      15.254158    
      7000   1.4388874     -5.3479891      0             -3.1956534      14.39894     
      8000   1.4532414     -5.1921709      0             -3.0183639      15.424051    
      9000   1.4370242     -5.3386664      0             -3.1891177      14.484963    
     10000   1.545054      -5.3535433      0             -3.0424001      14.464622    
Loop time of 0.47869 on 48 procs for 10000 steps with 360 atoms

Performance: 3609850.489 tau/day, 20890.338 timesteps/s, 7.521 Matom-step/s
99.5% CPU use with 48 MPI tasks x 1 OpenMP threads

MPI task timing breakdown:
Section |  min time  |  avg time  |  max time  |%varavg| %total
---------------------------------------------------------------
Pair    | 0.028356   | 0.03303    | 0.036381   |   0.8 |  6.90
Neigh   | 0.0057246  | 0.0064392  | 0.0069007  |   0.3 |  1.35
Comm    | 0.3516     | 0.36231    | 0.37631    |   1.1 | 75.69
Output  | 0.002939   | 0.0029418  | 0.0029826  |   0.0 |  0.61
Modify  | 0.043813   | 0.05841    | 0.06819    |   2.7 | 12.20
Other   |            | 0.01556    |            |       |  3.25

Nlocal:            7.5 ave          10 max           5 min
Histogram: 3 0 8 0 14 0 12 0 7 4
Nghost:         574.25 ave         592 max         558 min
Histogram: 3 2 2 8 8 15 4 3 2 1
Neighs:        431.833 ave         586 max         277 min
Histogram: 2 3 5 6 10 7 5 2 5 3

Total # of neighbors = 20728
Ave neighs/atom = 57.577778
Neighbor list builds = 344
Dangerous builds = 10
Total wall time: 0:00:01
