
include ${pot}.lmp
include kalj.lmp
units lj
atom_style atomic

variable dimensions equal 3
variable density equal 1.2
variable fraca equal 0.8

dimension ${dimensions}
dimension 3
read_restart ${prevbasename}.final.lmprestart.${prevsteps}
read_restart equil/kalj_T0.6_n360_v300_1000000_2.final.lmprestart.${prevsteps}
read_restart equil/kalj_T0.6_n360_v300_1000000_2.final.lmprestart.1000000
Reading restart file ...
  restart file = 15 Sep 2022, LAMMPS = 15 Sep 2022
  restoring atom style atomic from restart
  orthogonal box = (0 0 0) to (6.6943295 6.6943295 6.6943295)
  3 by 4 by 4 MPI processor grid
  restoring pair style lj/cut from restart
  360 atoms
  read_restart CPU = 0.041 seconds
include ${pot}_particles.lmp
include kalj_particles.lmp
mass * 1.0 #  set mass 1.0 for all types

pair_style lj/cut 2.5
#pair coeffs type1 type2 eps sigma
pair_coeff 1 1 1.0 1.00 2.5
pair_coeff 1 2 1.5 0.80 2.0
pair_coeff 2 2 0.5 0.88 2.2
pair_modify shift yes
reset_timestep 0

print "Setting up annealing run"
Setting up annealing run
dump 1 all atom ${dumptime} ${basename}.lammpstrj
dump 1 all atom 300000 ${basename}.lammpstrj
dump 1 all atom 300000 equil/kalj_T0.55_n360_v300_3000000_2.lammpstrj
#dump_modify 1 sort id scale no

restart ${restarttime} ${basename}.restart
restart 3000000 ${basename}.restart
restart 3000000 equil/kalj_T0.55_n360_v300_3000000_2.restart
restart ${steps} ${basename}.final.lmprestart
restart 3000000 ${basename}.final.lmprestart
restart 3000000 equil/kalj_T0.55_n360_v300_3000000_2.final.lmprestart

thermo ${thermotime}
thermo 30000
timestep ${timestep}
timestep 0.003

neighbor 0.5 bin
neigh_modify every 1 delay ${neighborstep} check yes
neigh_modify every 1 delay 25 check yes

velocity all create ${temp} ${id} dist gaussian
velocity all create 0.55 ${id} dist gaussian
velocity all create 0.55 2 dist gaussian
fix 1 all nvt temp ${temp} ${temp} ${taut}
fix 1 all nvt temp 0.55 ${temp} ${taut}
fix 1 all nvt temp 0.55 0.55 ${taut}
fix 1 all nvt temp 0.55 0.55 0.3
Resetting global fix info from restart file:
  fix style: nvt, fix ID: 1
run ${steps}
run 3000000
Generated 0 of 1 mixed pair_coeff terms from geometric mixing rule
All restart file global fix info was re-assigned
Neighbor list info ...
  update: every = 1 steps, delay = 25 steps, check = yes
  max neighbors/atom: 2000, page size: 100000
  master list distance cutoff = 3
  ghost atom cutoff = 3
  binsize = 1.5, bins = 5 5 5
  1 neighbor lists, perpetual/occasional/extra = 1 0 0
  (1) pair lj/cut, perpetual
      attributes: half, newton on
      pair build: half/bin/atomonly/newton
      stencil: half/bin/3d
      bin: standard
Per MPI rank memory allocation (min/avg/max) = 3.961 | 3.961 | 3.961 Mbytes
   Step          Temp          E_pair         E_mol          TotEng         Press     
         0   0.55          -6.7077652      0             -5.8850569      5.0613097    
     30000   0.54251891    -6.763539       0             -5.9520211      4.8592783    
     60000   0.54667883    -6.8440258      0             -6.0262854      4.1432618    
     90000   0.5578827     -6.7348245      0             -5.9003249      4.9532663    
    120000   0.52134144    -6.7708431      0             -5.9910032      4.643589     
    150000   0.5875462     -6.8146354      0             -5.9357642      4.3757658    
    180000   0.55060677    -6.7832371      0             -5.9596212      4.5230719    
    210000   0.5707102     -6.7947017      0             -5.9410144      4.5890365    
    240000   0.56176074    -6.7982132      0             -5.9579128      4.506314     
    270000   0.53423775    -6.8431945      0             -6.0440639      4.2168573    
    300000   0.58153832    -6.8473836      0             -5.9774992      4.2462317    
    330000   0.56881077    -6.7241287      0             -5.8732826      4.9913621    
    360000   0.54584331    -6.7394235      0             -5.9229329      4.8789126    
    390000   0.56363088    -6.7369532      0             -5.8938553      4.9040562    
    420000   0.52306215    -6.7857476      0             -6.0033338      4.5654625    
    450000   0.56727804    -6.7646696      0             -5.9161162      4.6243755    
    480000   0.56647093    -6.8414591      0             -5.994113       4.1671628    
    510000   0.56051799    -6.8332046      0             -5.9947631      4.1605638    
    540000   0.54173894    -6.80794        0             -5.9975888      4.3649561    
    570000   0.5102739     -6.8247311      0             -6.0614464      4.3564733    
    600000   0.54035987    -6.8004121      0             -5.9921238      4.3813958    
    630000   0.5142283     -6.8294095      0             -6.0602096      4.1377772    
    660000   0.5099928     -6.8182266      0             -6.0553624      4.3383227    
    690000   0.52740227    -6.8815504      0             -6.0926445      4.0539241    
    720000   0.56135099    -6.9320855      0             -6.092398       3.7920571    
    750000   0.59756091    -6.8793323      0             -5.9854807      4.1356537    
    780000   0.52964546    -6.8176261      0             -6.0253647      4.4036667    
    810000   0.54928782    -6.8086348      0             -5.9869917      4.3859755    
    840000   0.54729764    -6.7753997      0             -5.9567336      4.7106136    
    870000   0.55820928    -6.8188997      0             -5.9839117      4.5445455    
    900000   0.58090114    -6.7850472      0             -5.9161159      4.4450779    
    930000   0.53090547    -6.8093936      0             -6.0152475      4.4533335    
    960000   0.52981316    -6.8434299      0             -6.0509177      4.1389088    
    990000   0.52072902    -6.7694104      0             -5.9904865      4.7408932    
   1020000   0.55092214    -6.7475778      0             -5.9234901      4.7733453    
   1050000   0.56588092    -6.8255416      0             -5.9790781      4.5292481    
   1080000   0.5823548     -6.8003682      0             -5.9292624      4.5516639    
   1110000   0.53177139    -6.7642444      0             -5.968803       4.7494608    
   1140000   0.53510256    -6.8362451      0             -6.0358209      4.2963302    
   1170000   0.59243084    -6.7959437      0             -5.9097659      4.5954321    
   1200000   0.53545467    -6.7278629      0             -5.9269119      4.8833865    
   1230000   0.53899473    -6.8079633      0             -6.001717       4.19064      
   1260000   0.55873034    -6.743458       0             -5.9076905      4.7777154    
   1290000   0.52991879    -6.8436004      0             -6.0509303      4.1602115    
   1320000   0.53455404    -6.7743464      0             -5.9747426      4.7030036    
   1350000   0.56171921    -6.8558098      0             -6.0155715      4.0827882    
   1380000   0.5490857     -6.8439399      0             -6.0225992      4.1826265    
   1410000   0.52057546    -6.7536397      0             -5.9749455      4.7594663    
   1440000   0.57620545    -6.9023165      0             -6.0404092      3.8845812    
   1470000   0.55340135    -6.8339107      0             -6.0061145      4.175106     
   1500000   0.51204526    -6.827325       0             -6.0613907      4.3203715    
   1530000   0.52185858    -6.7712443      0             -5.9906308      4.5471743    
   1560000   0.56369921    -6.7411765      0             -5.8979764      5.0682258    
   1590000   0.57632667    -6.8096106      0             -5.947522       4.6129834    
   1620000   0.54621331    -6.7773641      0             -5.96032        4.6747451    
   1650000   0.56295893    -6.8148495      0             -5.9727567      4.2246374    
   1680000   0.52323879    -6.7938889      0             -6.0112108      4.3277653    
   1710000   0.55534981    -6.7341432      0             -5.9034325      4.897341     
   1740000   0.58418495    -6.8429635      0             -5.9691202      4.3196765    
   1770000   0.52133883    -6.7435633      0             -5.9637273      4.7603643    
   1800000   0.5698052     -6.7731501      0             -5.9208165      4.5967665    
   1830000   0.50950304    -6.8072647      0             -6.0451331      4.4829932    
   1860000   0.54782584    -6.8406378      0             -6.0211816      4.2450901    
   1890000   0.5744236     -6.8359345      0             -5.9766926      4.2910866    
   1920000   0.56213832    -6.7808292      0             -5.939964       4.3986069    
   1950000   0.57921124    -6.7889587      0             -5.9225552      4.6082586    
   1980000   0.56575721    -6.7777042      0             -5.9314258      4.5606016    
   2010000   0.57184176    -6.8176045      0             -5.9622246      4.4027168    
   2040000   0.56946238    -6.7838364      0             -5.9320156      4.6253444    
   2070000   0.54691267    -6.843068       0             -6.0249778      4.2941108    
   2100000   0.51785734    -6.7634117      0             -5.9887834      4.7095635    
   2130000   0.52048903    -6.826406       0             -6.0478412      4.1958722    
   2160000   0.51943244    -6.8282432      0             -6.0512588      4.4375132    
   2190000   0.53568395    -6.7929171      0             -5.9916232      4.4326733    
   2220000   0.54563881    -6.8147666      0             -5.9985819      4.4181399    
   2250000   0.51914616    -6.845118       0             -6.0685618      4.1500636    
   2280000   0.577879      -6.8046116      0             -5.940201       4.3929705    
   2310000   0.54543125    -6.8137646      0             -5.9978904      4.3438418    
   2340000   0.55553242    -6.8242133      0             -5.9932294      4.4257949    
   2370000   0.57425557    -6.7826373      0             -5.9236467      4.5685591    
   2400000   0.58818532    -6.8163811      0             -5.9365539      4.4873057    
   2430000   0.58012682    -6.8075878      0             -5.9398147      4.3512876    
   2460000   0.5438391     -6.8033836      0             -5.989891       4.6099555    
   2490000   0.49280347    -6.7486775      0             -6.0115256      4.7009293    
   2520000   0.58132377    -6.8205792      0             -5.9510157      4.4723718    
   2550000   0.56618244    -6.7806687      0             -5.9337542      4.6747245    
   2580000   0.53465543    -6.7872616      0             -5.9875062      4.6787623    
   2610000   0.54891193    -6.8127847      0             -5.9917039      4.368026     
   2640000   0.57096503    -6.7958973      0             -5.9418288      4.5714046    
   2670000   0.55130142    -6.7482406      0             -5.9235855      4.8759371    
   2700000   0.54944764    -6.8418295      0             -6.0199474      4.2807203    
   2730000   0.57588531    -6.820323       0             -5.9588945      4.5858463    
   2760000   0.55492561    -6.7576048      0             -5.9275286      4.9306484    
   2790000   0.55465245    -6.7741935      0             -5.9445259      4.7631348    
   2820000   0.56056311    -6.8095062      0             -5.9709972      4.3297466    
   2850000   0.51343719    -6.8181278      0             -6.0501114      4.3610138    
   2880000   0.54533079    -6.713507       0             -5.897783       4.9652296    
   2910000   0.56484388    -6.8415837      0             -5.9966714      4.1998172    
   2940000   0.56173231    -6.8447899      0             -6.004532       4.1504808    
   2970000   0.51434528    -6.7855129      0             -6.0161381      4.6235728    
   3000000   0.5517365     -6.8954542      0             -6.0701483      3.9609792    
Loop time of 141.747 on 48 procs for 3000000 steps with 360 atoms

Performance: 5485848.272 tau/day, 21164.538 timesteps/s, 7.619 Matom-step/s
99.6% CPU use with 48 MPI tasks x 1 OpenMP threads

MPI task timing breakdown:
Section |  min time  |  avg time  |  max time  |%varavg| %total
---------------------------------------------------------------
Pair    | 9.2113     | 9.6441     | 10.013     |   6.4 |  6.80
Neigh   | 1.517      | 1.5731     | 1.6275     |   1.9 |  1.11
Comm    | 105.21     | 108.54     | 112.78     |  18.7 | 76.58
Output  | 0.0099282  | 0.0099747  | 0.011088   |   0.2 |  0.01
Modify  | 13.223     | 17.554     | 20.591     |  47.0 | 12.38
Other   |            | 4.421      |            |       |  3.12

Nlocal:            7.5 ave          10 max           5 min
Histogram: 5 0 6 0 10 0 17 0 7 3
Nghost:        577.021 ave         599 max         558 min
Histogram: 1 3 6 12 8 4 6 4 3 1
Neighs:        432.521 ave         605 max         261 min
Histogram: 4 2 2 6 11 3 12 4 3 1

Total # of neighbors = 20761
Ave neighs/atom = 57.669444
Neighbor list builds = 84889
Dangerous builds = 619
Total wall time: 0:02:22
