
include ${pot}.lmp
include kalj.lmp
units lj
atom_style atomic

variable dimensions equal 3
variable density equal 1.2
variable fraca equal 0.8

dimension ${dimensions}
dimension 3
read_restart ${prevbasename}.final.lmprestart.${prevsteps}
read_restart equil/kalj_T0.5_n360_v300_10000000_4.final.lmprestart.${prevsteps}
read_restart equil/kalj_T0.5_n360_v300_10000000_4.final.lmprestart.10000000
Reading restart file ...
  restart file = 15 Sep 2022, LAMMPS = 15 Sep 2022
  restoring atom style atomic from restart
  orthogonal box = (0 0 0) to (6.6943295 6.6943295 6.6943295)
  3 by 4 by 4 MPI processor grid
  restoring pair style lj/cut from restart
  360 atoms
  read_restart CPU = 0.038 seconds
include ${pot}_particles.lmp
include kalj_particles.lmp
mass * 1.0 #  set mass 1.0 for all types

pair_style lj/cut 2.5
#pair coeffs type1 type2 eps sigma
pair_coeff 1 1 1.0 1.00 2.5
pair_coeff 1 2 1.5 0.80 2.0
pair_coeff 2 2 0.5 0.88 2.2
pair_modify shift yes
reset_timestep 0

print "Setting up annealing run"
Setting up annealing run
dump 1 all atom ${dumptime} ${basename}.lammpstrj
dump 1 all atom 3000000 ${basename}.lammpstrj
dump 1 all atom 3000000 equil/kalj_T0.475_n360_v300_30000000_4.lammpstrj
#dump_modify 1 sort id scale no

restart ${restarttime} ${basename}.restart
restart 30000000 ${basename}.restart
restart 30000000 equil/kalj_T0.475_n360_v300_30000000_4.restart
restart ${steps} ${basename}.final.lmprestart
restart 30000000 ${basename}.final.lmprestart
restart 30000000 equil/kalj_T0.475_n360_v300_30000000_4.final.lmprestart

thermo ${thermotime}
thermo 300000
timestep ${timestep}
timestep 0.003

neighbor 0.5 bin
neigh_modify every 1 delay ${neighborstep} check yes
neigh_modify every 1 delay 25 check yes

velocity all create ${temp} ${id} dist gaussian
velocity all create 0.475 ${id} dist gaussian
velocity all create 0.475 4 dist gaussian
fix 1 all nvt temp ${temp} ${temp} ${taut}
fix 1 all nvt temp 0.475 ${temp} ${taut}
fix 1 all nvt temp 0.475 0.475 ${taut}
fix 1 all nvt temp 0.475 0.475 0.3
Resetting global fix info from restart file:
  fix style: nvt, fix ID: 1
run ${steps}
run 30000000
Generated 0 of 1 mixed pair_coeff terms from geometric mixing rule
All restart file global fix info was re-assigned
Neighbor list info ...
  update: every = 1 steps, delay = 25 steps, check = yes
  max neighbors/atom: 2000, page size: 100000
  master list distance cutoff = 3
  ghost atom cutoff = 3
  binsize = 1.5, bins = 5 5 5
  1 neighbor lists, perpetual/occasional/extra = 1 0 0
  (1) pair lj/cut, perpetual
      attributes: half, newton on
      pair build: half/bin/atomonly/newton
      stencil: half/bin/3d
      bin: standard
Per MPI rank memory allocation (min/avg/max) = 3.961 | 3.961 | 3.961 Mbytes
   Step          Temp          E_pair         E_mol          TotEng         Press     
         0   0.475         -6.9043025      0             -6.1937817      3.7712346    
    300000   0.42500018    -6.9214813      0             -6.2857518      3.4269373    
    600000   0.48918434    -6.9558306      0             -6.2240923      3.386142     
    900000   0.46908507    -6.9978521      0             -6.296179       3.2438288    
   1200000   0.47937046    -6.9631775      0             -6.2461192      3.37872      
   1500000   0.45127088    -6.93514        0             -6.260114       3.5929062    
   1800000   0.49296271    -6.8895537      0             -6.1521637      3.9022661    
   2100000   0.47521975    -6.9663882      0             -6.2555387      3.4134688    
   2400000   0.46759419    -6.9201154      0             -6.2206724      3.6294101    
   2700000   0.48822818    -6.9400839      0             -6.2097759      3.5460948    
   3000000   0.46724378    -6.9463723      0             -6.2474535      3.4298738    
   3300000   0.50208077    -6.9793036      0             -6.2282744      3.4287934    
   3600000   0.45526276    -6.9250045      0             -6.2440073      3.6502271    
   3900000   0.4799276     -6.9797071      0             -6.2618154      3.3073366    
   4200000   0.4825373     -6.9387225      0             -6.2169271      3.5997757    
   4500000   0.48254859    -6.934292       0             -6.2124797      3.604349     
   4800000   0.47449322    -6.9760913      0             -6.2663285      3.3200266    
   5100000   0.43450507    -6.9852458      0             -6.3352986      3.2967332    
   5400000   0.49444723    -6.9976926      0             -6.258082       3.1575953    
   5700000   0.47126362    -6.9742005      0             -6.2692687      3.2197785    
   6000000   0.45620835    -6.9947856      0             -6.312374       3.1305676    
   6300000   0.51278222    -6.9622179      0             -6.1951812      3.4053553    
   6600000   0.48279235    -6.9596172      0             -6.2374403      3.4016006    
   6900000   0.45457229    -7.0235553      0             -6.3435909      3.0617036    
   7200000   0.48932103    -6.9833075      0             -6.2513648      3.1775826    
   7500000   0.476288      -6.9867771      0             -6.2743296      3.303983     
   7800000   0.44871578    -7.0115134      0             -6.3403094      3.0932724    
   8100000   0.50029365    -6.9463395      0             -6.1979836      3.5350882    
   8400000   0.48729089    -6.9722359      0             -6.24333        3.2886779    
   8700000   0.45709769    -6.9598941      0             -6.2761521      3.5051916    
   9000000   0.47443933    -6.921924       0             -6.2122419      3.6200069    
   9300000   0.47373851    -6.9449617      0             -6.2363278      3.4790226    
   9600000   0.46242477    -6.9751072      0             -6.2833968      3.3297912    
   9900000   0.47420821    -6.9519207      0             -6.2425843      3.4490996    
  10200000   0.46345227    -6.9444959      0             -6.2512485      3.4477811    
  10500000   0.49080851    -6.9556902      0             -6.2215225      3.5571824    
  10800000   0.46707862    -6.9244394      0             -6.2257676      3.6146026    
  11100000   0.45558926    -6.9330614      0             -6.2515758      3.4728188    
  11400000   0.46140022    -6.9887025      0             -6.2985247      3.2280392    
  11700000   0.44732058    -6.9219268      0             -6.2528098      3.8295606    
  12000000   0.45974153    -6.894152       0             -6.2064553      3.7130695    
  12300000   0.47831493    -6.9830879      0             -6.2676085      3.4102765    
  12600000   0.47562868    -6.9585144      0             -6.2470532      3.4794281    
  12900000   0.49720304    -6.9900476      0             -6.2463147      3.2872589    
  13200000   0.47657349    -6.9907352      0             -6.2778607      3.2590648    
  13500000   0.48421094    -6.9443735      0             -6.2200746      3.5551799    
  13800000   0.48639237    -6.9219529      0             -6.1943909      3.495423     
  14100000   0.47439479    -6.8975561      0             -6.1879406      3.8099526    
  14400000   0.50482821    -6.9746305      0             -6.2194917      3.3772771    
  14700000   0.43425574    -6.9888393      0             -6.339265       3.1082785    
  15000000   0.47029417    -6.9721107      0             -6.268629       3.3704888    
  15300000   0.44016716    -6.9486588      0             -6.2902421      3.327847     
  15600000   0.47752347    -6.9428147      0             -6.2285192      3.4786077    
  15900000   0.49179153    -6.9538477      0             -6.2182095      3.3864335    
  16200000   0.50055404    -6.9094458      0             -6.1607004      3.8202972    
  16500000   0.46722722    -7.0028414      0             -6.3039473      3.059919     
  16800000   0.487127      -6.9593451      0             -6.2306843      3.4815406    
  17100000   0.4438773     -6.9504238      0             -6.2864573      3.3794262    
  17400000   0.47367189    -6.9333075      0             -6.2247733      3.6346602    
  17700000   0.48195918    -6.9540668      0             -6.2331362      3.6703962    
  18000000   0.47125202    -6.9645425      0             -6.259628       3.3377903    
  18300000   0.51097094    -7.0125049      0             -6.2481776      3.0507085    
  18600000   0.46992147    -7.0319497      0             -6.3290255      2.9150287    
  18900000   0.48705757    -6.9617146      0             -6.2331577      3.4618097    
  19200000   0.46553565    -6.9545537      0             -6.2581899      3.494584     
  19500000   0.48417151    -6.9761592      0             -6.2519193      3.3790644    
  19800000   0.48013683    -6.9491642      0             -6.2309595      3.4553626    
  20100000   0.47101944    -6.993147       0             -6.2885804      3.2220177    
  20400000   0.49375583    -6.9932145      0             -6.2546381      3.3235175    
  20700000   0.44093967    -6.9572304      0             -6.2976581      3.4288774    
  21000000   0.47898496    -6.9316594      0             -6.2151777      3.6258577    
  21300000   0.4833018     -6.9224706      0             -6.1995317      3.6734431    
  21600000   0.46715969    -7.0021858      0             -6.3033927      3.0975355    
  21900000   0.47384321    -6.8570738      0             -6.1482833      4.0183238    
  22200000   0.46789853    -6.9754685      0             -6.2755703      3.2960186    
  22500000   0.4956496     -6.8916027      0             -6.1501935      3.8192333    
  22800000   0.48628482    -6.9008869      0             -6.1734859      3.8245189    
  23100000   0.48321705    -6.9117109      0             -6.1888988      3.8119625    
  23400000   0.4258977     -6.9996836      0             -6.3626116      2.9474359    
  23700000   0.47240086    -6.9405761      0             -6.2339432      3.492533     
  24000000   0.4633537     -6.9962559      0             -6.303156       3.1142732    
  24300000   0.49667599    -6.9439703      0             -6.2010258      3.5836587    
  24600000   0.52579602    -6.945503       0             -6.1589998      3.5633849    
  24900000   0.45982452    -6.9649275      0             -6.2771066      3.2359458    
  25200000   0.50730713    -6.9911327      0             -6.2322858      3.1701557    
  25500000   0.48537106    -6.9718865      0             -6.2458523      3.4533338    
  25800000   0.45073591    -6.9439217      0             -6.2696959      3.4337475    
  26100000   0.4846466     -7.0155105      0             -6.29056        3.1241308    
  26400000   0.43071515    -6.9317957      0             -6.2875176      3.5432322    
  26700000   0.47908336    -6.9633796      0             -6.2467507      3.4002557    
  27000000   0.43878263    -6.933574       0             -6.2772283      3.5943234    
  27300000   0.45459921    -6.9658933      0             -6.2858887      3.4118735    
  27600000   0.47582795    -7.0167384      0             -6.3049791      3.0896461    
  27900000   0.48121485    -6.9320627      0             -6.2122455      3.5048259    
  28200000   0.45245587    -6.9916268      0             -6.3148282      3.2146326    
  28500000   0.45660137    -6.9058182      0             -6.2228187      3.6047009    
  28800000   0.4892348     -6.8921719      0             -6.1603582      3.9381392    
  29100000   0.45805139    -6.9551424      0             -6.2699739      3.4163766    
  29400000   0.46693732    -6.9070715      0             -6.2086111      3.9375783    
  29700000   0.46503424    -6.9210934      0             -6.2254797      3.8203867    
  30000000   0.48144846    -6.997067       0             -6.2769003      3.1975804    
Loop time of 1422.2 on 48 procs for 30000000 steps with 360 atoms

Performance: 5467566.870 tau/day, 21094.008 timesteps/s, 7.594 Matom-step/s
99.6% CPU use with 48 MPI tasks x 1 OpenMP threads

MPI task timing breakdown:
Section |  min time  |  avg time  |  max time  |%varavg| %total
---------------------------------------------------------------
Pair    | 91.07      | 96.323     | 105.34     |  25.3 |  6.77
Neigh   | 13.805     | 14.269     | 14.925     |   7.2 |  1.00
Comm    | 1053.4     | 1084       | 1122.4     |  55.5 | 76.22
Output  | 0.030277   | 0.030445   | 0.037482   |   0.6 |  0.00
Modify  | 139.59     | 176.96     | 205.81     | 141.0 | 12.44
Other   |            | 50.61      |            |       |  3.56

Nlocal:            7.5 ave          10 max           5 min
Histogram: 3 0 9 0 15 0 8 0 8 5
Nghost:        570.125 ave         587 max         557 min
Histogram: 7 1 7 6 5 8 3 5 3 3
Neighs:        432.958 ave         563 max         273 min
Histogram: 2 1 3 10 6 8 3 6 3 6

Total # of neighbors = 20782
Ave neighs/atom = 57.727778
Neighbor list builds = 769697
Dangerous builds = 993
Total wall time: 0:23:43
