
include ${pot}.lmp
include kalj.lmp
units lj
atom_style atomic

variable dimensions equal 3
variable density equal 1.2
variable fraca equal 0.8

dimension ${dimensions}
dimension 3
read_restart ${prevbasename}.final.lmprestart.${prevsteps}
read_restart equil/kalj_T2_n360_v300_10000_4.final.lmprestart.${prevsteps}
read_restart equil/kalj_T2_n360_v300_10000_4.final.lmprestart.10000
Reading restart file ...
  restart file = 15 Sep 2022, LAMMPS = 15 Sep 2022
  restoring atom style atomic from restart
  orthogonal box = (0 0 0) to (6.6943295 6.6943295 6.6943295)
  3 by 4 by 4 MPI processor grid
  restoring pair style lj/cut from restart
  360 atoms
  read_restart CPU = 0.038 seconds
include ${pot}_particles.lmp
include kalj_particles.lmp
mass * 1.0 #  set mass 1.0 for all types

pair_style lj/cut 2.5
#pair coeffs type1 type2 eps sigma
pair_coeff 1 1 1.0 1.00 2.5
pair_coeff 1 2 1.5 0.80 2.0
pair_coeff 2 2 0.5 0.88 2.2
pair_modify shift yes
reset_timestep 0

print "Setting up annealing run"
Setting up annealing run
dump 1 all atom ${dumptime} ${basename}.lammpstrj
dump 1 all atom 10000 ${basename}.lammpstrj
dump 1 all atom 10000 equil/kalj_T1.5_n360_v300_10000_4.lammpstrj
#dump_modify 1 sort id scale no

restart ${restarttime} ${basename}.restart
restart 10000 ${basename}.restart
restart 10000 equil/kalj_T1.5_n360_v300_10000_4.restart
restart ${steps} ${basename}.final.lmprestart
restart 10000 ${basename}.final.lmprestart
restart 10000 equil/kalj_T1.5_n360_v300_10000_4.final.lmprestart

thermo ${thermotime}
thermo 1000
timestep ${timestep}
timestep 0.002

neighbor 0.5 bin
neigh_modify every 1 delay ${neighborstep} check yes
neigh_modify every 1 delay 20 check yes

velocity all create ${temp} ${id} dist gaussian
velocity all create 1.5 ${id} dist gaussian
velocity all create 1.5 4 dist gaussian
fix 1 all nvt temp ${temp} ${temp} ${taut}
fix 1 all nvt temp 1.5 ${temp} ${taut}
fix 1 all nvt temp 1.5 1.5 ${taut}
fix 1 all nvt temp 1.5 1.5 0.2
run ${steps}
run 10000
Generated 0 of 1 mixed pair_coeff terms from geometric mixing rule
Neighbor list info ...
  update: every = 1 steps, delay = 20 steps, check = yes
  max neighbors/atom: 2000, page size: 100000
  master list distance cutoff = 3
  ghost atom cutoff = 3
  binsize = 1.5, bins = 5 5 5
  1 neighbor lists, perpetual/occasional/extra = 1 0 0
  (1) pair lj/cut, perpetual
      attributes: half, newton on
      pair build: half/bin/atomonly/newton
      stencil: half/bin/3d
      bin: standard
Per MPI rank memory allocation (min/avg/max) = 3.961 | 3.961 | 3.961 Mbytes
   Step          Temp          E_pair         E_mol          TotEng         Press     
         0   1.5            6.2872555      0              8.5310055      80.502613    
      1000   1.4356555     -5.1341306      0             -2.9866293      15.767243    
      2000   1.4243233     -5.1350034      0             -3.0044531      15.666672    
      3000   1.4084924     -5.1417218      0             -3.0348519      15.736697    
      4000   1.4703758     -5.2620786      0             -3.0626415      14.986214    
      5000   1.517242      -5.2175134      0             -2.9479723      15.443886    
      6000   1.5279376     -5.3013879      0             -3.0158479      15.011498    
      7000   1.50749       -5.0954994      0             -2.8405456      16.059729    
      8000   1.4511956     -5.3057864      0             -3.1350396      14.855253    
      9000   1.5263166     -5.2596652      0             -2.9765499      15.105463    
     10000   1.4502023     -5.2721323      0             -3.1028714      14.938327    
Loop time of 0.526815 on 48 procs for 10000 steps with 360 atoms

Performance: 3280088.539 tau/day, 18981.994 timesteps/s, 6.834 Matom-step/s
99.1% CPU use with 48 MPI tasks x 1 OpenMP threads

MPI task timing breakdown:
Section |  min time  |  avg time  |  max time  |%varavg| %total
---------------------------------------------------------------
Pair    | 0.030187   | 0.033099   | 0.036061   |   0.8 |  6.28
Neigh   | 0.0061612  | 0.0065261  | 0.0071303  |   0.2 |  1.24
Comm    | 0.37747    | 0.38873    | 0.40502    |   1.1 | 73.79
Output  | 0.013739   | 0.013742   | 0.01379    |   0.0 |  2.61
Modify  | 0.051685   | 0.067138   | 0.078875   |   2.7 | 12.74
Other   |            | 0.01758    |            |       |  3.34

Nlocal:            7.5 ave          10 max           5 min
Histogram: 2 0 8 0 15 0 12 0 9 2
Nghost:        573.479 ave         589 max         558 min
Histogram: 2 2 4 7 11 4 11 3 1 3
Neighs:        432.854 ave         567 max         265 min
Histogram: 2 2 3 4 11 6 6 6 4 4

Total # of neighbors = 20777
Ave neighs/atom = 57.713889
Neighbor list builds = 348
Dangerous builds = 9
Total wall time: 0:00:01
