
include ${pot}.lmp
include kalj.lmp
units lj
atom_style atomic

variable dimensions equal 3
variable density equal 1.2
variable fraca equal 0.8

dimension ${dimensions}
dimension 3
read_restart ${prevbasename}.final.lmprestart.${prevsteps}
read_restart equil/kalj_T0.6_n360_v300_1000000_4.final.lmprestart.${prevsteps}
read_restart equil/kalj_T0.6_n360_v300_1000000_4.final.lmprestart.1000000
Reading restart file ...
  restart file = 15 Sep 2022, LAMMPS = 15 Sep 2022
  restoring atom style atomic from restart
  orthogonal box = (0 0 0) to (6.6943295 6.6943295 6.6943295)
  3 by 4 by 4 MPI processor grid
  restoring pair style lj/cut from restart
  360 atoms
  read_restart CPU = 0.040 seconds
include ${pot}_particles.lmp
include kalj_particles.lmp
mass * 1.0 #  set mass 1.0 for all types

pair_style lj/cut 2.5
#pair coeffs type1 type2 eps sigma
pair_coeff 1 1 1.0 1.00 2.5
pair_coeff 1 2 1.5 0.80 2.0
pair_coeff 2 2 0.5 0.88 2.2
pair_modify shift yes
reset_timestep 0

print "Setting up annealing run"
Setting up annealing run
dump 1 all atom ${dumptime} ${basename}.lammpstrj
dump 1 all atom 300000 ${basename}.lammpstrj
dump 1 all atom 300000 equil/kalj_T0.55_n360_v300_3000000_4.lammpstrj
#dump_modify 1 sort id scale no

restart ${restarttime} ${basename}.restart
restart 3000000 ${basename}.restart
restart 3000000 equil/kalj_T0.55_n360_v300_3000000_4.restart
restart ${steps} ${basename}.final.lmprestart
restart 3000000 ${basename}.final.lmprestart
restart 3000000 equil/kalj_T0.55_n360_v300_3000000_4.final.lmprestart

thermo ${thermotime}
thermo 30000
timestep ${timestep}
timestep 0.003

neighbor 0.5 bin
neigh_modify every 1 delay ${neighborstep} check yes
neigh_modify every 1 delay 25 check yes

velocity all create ${temp} ${id} dist gaussian
velocity all create 0.55 ${id} dist gaussian
velocity all create 0.55 4 dist gaussian
fix 1 all nvt temp ${temp} ${temp} ${taut}
fix 1 all nvt temp 0.55 ${temp} ${taut}
fix 1 all nvt temp 0.55 0.55 ${taut}
fix 1 all nvt temp 0.55 0.55 0.3
Resetting global fix info from restart file:
  fix style: nvt, fix ID: 1
run ${steps}
run 3000000
Generated 0 of 1 mixed pair_coeff terms from geometric mixing rule
All restart file global fix info was re-assigned
Neighbor list info ...
  update: every = 1 steps, delay = 25 steps, check = yes
  max neighbors/atom: 2000, page size: 100000
  master list distance cutoff = 3
  ghost atom cutoff = 3
  binsize = 1.5, bins = 5 5 5
  1 neighbor lists, perpetual/occasional/extra = 1 0 0
  (1) pair lj/cut, perpetual
      attributes: half, newton on
      pair build: half/bin/atomonly/newton
      stencil: half/bin/3d
      bin: standard
Per MPI rank memory allocation (min/avg/max) = 3.961 | 3.961 | 3.961 Mbytes
   Step          Temp          E_pair         E_mol          TotEng         Press     
         0   0.55          -6.7238552      0             -5.9011468      4.9868861    
     30000   0.5327105     -6.7774511      0             -5.980605       4.7021502    
     60000   0.53281666    -6.8787969      0             -6.081792       4.0298911    
     90000   0.54882767    -6.7916781      0             -5.9707234      4.4646205    
    120000   0.56036096    -6.8166517      0             -5.9784451      4.4815271    
    150000   0.55764306    -6.799227       0             -5.9650859      4.4509088    
    180000   0.56730979    -6.7896375      0             -5.9410366      4.4700387    
    210000   0.56736675    -6.8829719      0             -6.0342858      3.9926108    
    240000   0.5427762     -6.829878       0             -6.0179753      4.2403722    
    270000   0.51427641    -6.8627553      0             -6.0934835      3.9224653    
    300000   0.56767268    -6.8592761      0             -6.0101323      4.2160299    
    330000   0.57520909    -6.8140034      0             -5.9535865      4.5232321    
    360000   0.57371604    -6.7852407      0             -5.9270572      4.5315012    
    390000   0.563391      -6.7845565      0             -5.9418175      4.432157     
    420000   0.54517937    -6.8614775      0             -6.04598        4.1140687    
    450000   0.55264574    -6.8064448      0             -5.9797789      4.5013518    
    480000   0.56381585    -6.7810732      0             -5.9376987      4.7651157    
    510000   0.55562767    -6.7533893      0             -5.9222629      4.8372003    
    540000   0.55360442    -6.8388835      0             -6.0107835      4.3345283    
    570000   0.55384464    -6.8458217      0             -6.0173624      4.2435436    
    600000   0.48832121    -6.8318247      0             -6.1013776      4.2090509    
    630000   0.5702149     -6.8092432      0             -5.9562968      4.4664432    
    660000   0.56714828    -6.7975889      0             -5.9492296      4.3982389    
    690000   0.58254623    -6.8389951      0             -5.967603       4.3989159    
    720000   0.6189811     -6.7983171      0             -5.8724246      4.6501582    
    750000   0.53876742    -6.8605198      0             -6.0546136      4.1251824    
    780000   0.54126155    -6.8064081      0             -5.996771       4.5206674    
    810000   0.54518053    -6.7824354      0             -5.9669362      4.5056395    
    840000   0.58253945    -6.8391852      0             -5.9678033      4.3290635    
    870000   0.53832101    -6.7723852      0             -5.9671467      4.7185954    
    900000   0.59128654    -6.8258694      0             -5.9414033      4.46806      
    930000   0.53843862    -6.7946076      0             -5.9891932      4.4977839    
    960000   0.56326423    -6.7749299      0             -5.9323805      4.5458877    
    990000   0.52436797    -6.8358928      0             -6.0515257      4.2385241    
   1020000   0.5241011     -6.8721147      0             -6.0881468      4.0230571    
   1050000   0.56622019    -6.7895524      0             -5.9425814      4.5835354    
   1080000   0.56225679    -6.8137954      0             -5.9727529      4.3502225    
   1110000   0.55784117    -6.8278075      0             -5.9933701      4.2766337    
   1140000   0.51179831    -6.8018873      0             -6.0363224      4.5100223    
   1170000   0.5160876     -6.8170319      0             -6.0450509      4.306943     
   1200000   0.51261822    -6.7935398      0             -6.0267484      4.4979001    
   1230000   0.54788912    -6.8036793      0             -5.9841285      4.4364636    
   1260000   0.5696827     -6.8039418      0             -5.9517915      4.5198518    
   1290000   0.53979031    -6.7760947      0             -5.9686584      4.513865     
   1320000   0.57869405    -6.8043072      0             -5.9386773      4.5219423    
   1350000   0.59657834    -6.8689743      0             -5.9765926      4.2084127    
   1380000   0.54199109    -6.8830104      0             -6.0722821      4.1403921    
   1410000   0.5434987     -6.7665052      0             -5.9535217      4.6330824    
   1440000   0.50882059    -6.7917601      0             -6.0306493      4.5708698    
   1470000   0.54871883    -6.8006441      0             -5.9798522      4.520725     
   1500000   0.55175192    -6.8733033      0             -6.0479744      4.216027     
   1530000   0.59011578    -6.8368779      0             -5.954163       4.4656521    
   1560000   0.52831896    -6.8114666      0             -6.0211895      4.4874238    
   1590000   0.56843396    -6.7572782      0             -5.9069957      4.6391229    
   1620000   0.50152383    -6.7873495      0             -6.0371534      4.5859578    
   1650000   0.5487272     -6.7956267      0             -5.9748223      4.4429955    
   1680000   0.57323901    -6.7847509      0             -5.9272809      4.5469676    
   1710000   0.57105788    -6.8033499      0             -5.9491425      4.5744609    
   1740000   0.50689671    -6.7806043      0             -6.0223713      4.5417576    
   1770000   0.53117509    -6.8384346      0             -6.0438852      4.3888711    
   1800000   0.58472743    -6.7279736      0             -5.8533188      4.9498007    
   1830000   0.52075888    -6.8699494      0             -6.0909809      4.0337155    
   1860000   0.55849479    -6.8035008      0             -5.9680857      4.2591922    
   1890000   0.53973012    -6.7714726      0             -5.9641263      4.6703857    
   1920000   0.6014942     -6.8204875      0             -5.9207524      4.5126935    
   1950000   0.51333686    -6.8297118      0             -6.0618455      4.4119131    
   1980000   0.55318839    -6.8073948      0             -5.9799172      4.5286107    
   2010000   0.54133316    -6.7706418      0             -5.9608976      4.733319     
   2040000   0.53593821    -6.7568702      0             -5.9551959      4.6214601    
   2070000   0.53769757    -6.7873802      0             -5.9830743      4.4978422    
   2100000   0.59982478    -6.8577355      0             -5.9604977      4.1623525    
   2130000   0.5981059     -6.8393103      0             -5.9446435      4.3294095    
   2160000   0.54603189    -6.7749597      0             -5.958187       4.6506289    
   2190000   0.58541503    -6.7693766      0             -5.8936933      4.7249283    
   2220000   0.52955649    -6.7904723      0             -5.998344       4.4998141    
   2250000   0.54163308    -6.818678       0             -6.0084851      4.3675489    
   2280000   0.54177966    -6.8337677      0             -6.0233556      4.2729249    
   2310000   0.59762414    -6.8420314      0             -5.9480853      4.2449335    
   2340000   0.51755304    -6.7368462      0             -5.9626732      4.8037393    
   2370000   0.59715711    -6.7517444      0             -5.8584969      4.6226538    
   2400000   0.54564619    -6.777597       0             -5.9614013      4.6113106    
   2430000   0.52814799    -6.8261148      0             -6.0360934      4.2719671    
   2460000   0.52836401    -6.8835009      0             -6.0931564      3.8807734    
   2490000   0.54837056    -6.8479482      0             -6.0276772      4.0513539    
   2520000   0.58768346    -6.835519       0             -5.9564425      4.319293     
   2550000   0.52844221    -6.7310524      0             -5.9405909      4.9458737    
   2580000   0.56609506    -6.8227029      0             -5.975919       4.4043377    
   2610000   0.55604568    -6.7922169      0             -5.9604652      4.6286894    
   2640000   0.58353244    -6.7666492      0             -5.8937819      4.8789223    
   2670000   0.55915355    -6.739558       0             -5.9031575      4.8785912    
   2700000   0.59339087    -6.8257069      0             -5.938093       4.3895747    
   2730000   0.57621914    -6.8193724      0             -5.9574446      4.3900143    
   2760000   0.5630351     -6.7773012      0             -5.9350945      4.7019321    
   2790000   0.53793912    -6.7806741      0             -5.9760068      4.548723     
   2820000   0.5377148     -6.8256047      0             -6.021273       4.4390431    
   2850000   0.57029146    -6.8030643      0             -5.9500033      4.4851433    
   2880000   0.57159096    -6.7610941      0             -5.9060893      4.8601861    
   2910000   0.57442102    -6.7679681      0             -5.90873        4.7970541    
   2940000   0.54018552    -6.8006318      0             -5.9926043      4.4686617    
   2970000   0.56209724    -6.7413997      0             -5.9005959      4.9028123    
   3000000   0.59905009    -6.8409908      0             -5.9449118      4.4172508    
Loop time of 143.144 on 48 procs for 3000000 steps with 360 atoms

Performance: 5432279.625 tau/day, 20957.869 timesteps/s, 7.545 Matom-step/s
99.7% CPU use with 48 MPI tasks x 1 OpenMP threads

MPI task timing breakdown:
Section |  min time  |  avg time  |  max time  |%varavg| %total
---------------------------------------------------------------
Pair    | 9.0702     | 9.715      | 10.582     |  10.7 |  6.79
Neigh   | 1.5087     | 1.5888     | 1.7527     |   3.7 |  1.11
Comm    | 106.18     | 109.18     | 113.27     |  17.7 | 76.27
Output  | 0.020094   | 0.020154   | 0.021273   |   0.1 |  0.01
Modify  | 13.987     | 18.166     | 21.4       |  42.5 | 12.69
Other   |            | 4.471      |            |       |  3.12

Nlocal:            7.5 ave          11 max           4 min
Histogram: 1 3 7 0 13 12 0 9 2 1
Nghost:        567.979 ave         581 max         558 min
Histogram: 4 3 3 15 7 7 3 0 3 3
Neighs:        433.083 ave         660 max         258 min
Histogram: 2 3 6 12 7 7 7 2 0 2

Total # of neighbors = 20788
Ave neighs/atom = 57.744444
Neighbor list builds = 84993
Dangerous builds = 618
Total wall time: 0:02:23
