
include ${pot}.lmp
include kalj.lmp
units lj
atom_style atomic

variable dimensions equal 3
variable density equal 1.2
variable fraca equal 0.8

dimension ${dimensions}
dimension 3
read_restart ${prevbasename}.final.lmprestart.${prevsteps}
read_restart equil/kalj_T0.8_n360_v300_150000_4.final.lmprestart.${prevsteps}
read_restart equil/kalj_T0.8_n360_v300_150000_4.final.lmprestart.150000
Reading restart file ...
  restart file = 15 Sep 2022, LAMMPS = 15 Sep 2022
  restoring atom style atomic from restart
  orthogonal box = (0 0 0) to (6.6943295 6.6943295 6.6943295)
  3 by 4 by 4 MPI processor grid
  restoring pair style lj/cut from restart
  360 atoms
  read_restart CPU = 0.048 seconds
include ${pot}_particles.lmp
include kalj_particles.lmp
mass * 1.0 #  set mass 1.0 for all types

pair_style lj/cut 2.5
#pair coeffs type1 type2 eps sigma
pair_coeff 1 1 1.0 1.00 2.5
pair_coeff 1 2 1.5 0.80 2.0
pair_coeff 2 2 0.5 0.88 2.2
pair_modify shift yes
reset_timestep 0

print "Setting up annealing run"
Setting up annealing run
dump 1 all atom ${dumptime} ${basename}.lammpstrj
dump 1 all atom 60000 ${basename}.lammpstrj
dump 1 all atom 60000 equil/kalj_T0.7_n360_v300_180000_4.lammpstrj
#dump_modify 1 sort id scale no

restart ${restarttime} ${basename}.restart
restart 180000 ${basename}.restart
restart 180000 equil/kalj_T0.7_n360_v300_180000_4.restart
restart ${steps} ${basename}.final.lmprestart
restart 180000 ${basename}.final.lmprestart
restart 180000 equil/kalj_T0.7_n360_v300_180000_4.final.lmprestart

thermo ${thermotime}
thermo 6000
timestep ${timestep}
timestep 0.003

neighbor 0.5 bin
neigh_modify every 1 delay ${neighborstep} check yes
neigh_modify every 1 delay 25 check yes

velocity all create ${temp} ${id} dist gaussian
velocity all create 0.7 ${id} dist gaussian
velocity all create 0.7 4 dist gaussian
fix 1 all nvt temp ${temp} ${temp} ${taut}
fix 1 all nvt temp 0.7 ${temp} ${taut}
fix 1 all nvt temp 0.7 0.7 ${taut}
fix 1 all nvt temp 0.7 0.7 0.3
Resetting global fix info from restart file:
  fix style: nvt, fix ID: 1
run ${steps}
run 180000
Generated 0 of 1 mixed pair_coeff terms from geometric mixing rule
All restart file global fix info was re-assigned
Neighbor list info ...
  update: every = 1 steps, delay = 25 steps, check = yes
  max neighbors/atom: 2000, page size: 100000
  master list distance cutoff = 3
  ghost atom cutoff = 3
  binsize = 1.5, bins = 5 5 5
  1 neighbor lists, perpetual/occasional/extra = 1 0 0
  (1) pair lj/cut, perpetual
      attributes: half, newton on
      pair build: half/bin/atomonly/newton
      stencil: half/bin/3d
      bin: standard
Per MPI rank memory allocation (min/avg/max) = 3.961 | 3.961 | 3.961 Mbytes
   Step          Temp          E_pair         E_mol          TotEng         Press     
         0   0.7           -6.3408575      0             -5.2937742      7.5634683    
      6000   0.65906822    -6.457232       0             -5.4713758      6.6697647    
     12000   0.65720955    -6.521061       0             -5.5379851      6.2377877    
     18000   0.68526485    -6.5441675      0             -5.5191255      6.0651729    
     24000   0.71942728    -6.4801756      0             -5.4040323      6.7326625    
     30000   0.66315792    -6.5579896      0             -5.5660159      6.2572752    
     36000   0.68294651    -6.5321259      0             -5.5105518      6.4552585    
     42000   0.6822382     -6.5591432      0             -5.5386286      6.3640103    
     48000   0.68998323    -6.4671468      0             -5.4350469      6.6012902    
     54000   0.73832887    -6.5246003      0             -5.4201834      6.457621     
     60000   0.66981593    -6.5786035      0             -5.5766705      6.0235066    
     66000   0.73006447    -6.4891422      0             -5.3970874      6.5213456    
     72000   0.74075017    -6.5470392      0             -5.4390004      6.3190855    
     78000   0.70533273    -6.4857967      0             -5.4307365      6.7431949    
     84000   0.70208182    -6.5184669      0             -5.4682695      6.4951729    
     90000   0.6965251     -6.5506127      0             -5.5087272      6.3966254    
     96000   0.74305819    -6.5595703      0             -5.4480791      6.3069352    
    102000   0.65280497    -6.5243504      0             -5.547863       6.2774368    
    108000   0.71892935    -6.4706192      0             -5.3952207      6.5978309    
    114000   0.73598286    -6.4800473      0             -5.3791396      6.5820824    
    120000   0.7794682     -6.4847925      0             -5.318838       6.6261409    
    126000   0.68339973    -6.4085875      0             -5.3863354      6.95928      
    132000   0.70790325    -6.4923301      0             -5.4334248      6.5384373    
    138000   0.75899455    -6.5743699      0             -5.4390405      6.1978856    
    144000   0.74701816    -6.5693992      0             -5.4519846      6.0149896    
    150000   0.70015473    -6.4950745      0             -5.4477597      6.6403612    
    156000   0.70421175    -6.5579762      0             -5.5045928      6.2346279    
    162000   0.69264419    -6.5370056      0             -5.5009253      6.3032417    
    168000   0.70633092    -6.4850845      0             -5.4285312      6.565866     
    174000   0.72988129    -6.4443385      0             -5.3525578      6.9383162    
    180000   0.69239114    -6.4801525      0             -5.4444507      6.7514819    
Loop time of 8.61392 on 48 procs for 180000 steps with 360 atoms

Performance: 5416346.525 tau/day, 20896.399 timesteps/s, 7.523 Matom-step/s
99.6% CPU use with 48 MPI tasks x 1 OpenMP threads

MPI task timing breakdown:
Section |  min time  |  avg time  |  max time  |%varavg| %total
---------------------------------------------------------------
Pair    | 0.55629    | 0.58837    | 0.63737    |   2.5 |  6.83
Neigh   | 0.1059     | 0.11036    | 0.11724    |   0.8 |  1.28
Comm    | 6.4047     | 6.6005     | 6.8307     |   4.4 | 76.63
Output  | 0.013542   | 0.013559   | 0.013721   |   0.0 |  0.16
Modify  | 0.84963    | 1.1021     | 1.2886     |  10.7 | 12.79
Other   |            | 0.199      |            |       |  2.31

Nlocal:            7.5 ave          10 max           5 min
Histogram: 2 0 9 0 12 0 15 0 8 2
Nghost:        576.542 ave         592 max         564 min
Histogram: 3 1 6 12 5 10 5 5 0 1
Neighs:        432.312 ave         599 max         279 min
Histogram: 2 1 10 4 6 9 9 5 1 1

Total # of neighbors = 20751
Ave neighs/atom = 57.641667
Neighbor list builds = 5916
Dangerous builds = 425
Total wall time: 0:00:09
