
include ${pot}.lmp
include kalj.lmp
units lj
atom_style atomic

variable dimensions equal 3
variable density equal 1.2
variable fraca equal 0.8

dimension ${dimensions}
dimension 3
read_restart ${prevbasename}.final.lmprestart.${prevsteps}
read_restart equil/kalj_T0.9_n360_v300_150000_4.final.lmprestart.${prevsteps}
read_restart equil/kalj_T0.9_n360_v300_150000_4.final.lmprestart.150000
Reading restart file ...
  restart file = 15 Sep 2022, LAMMPS = 15 Sep 2022
  restoring atom style atomic from restart
  orthogonal box = (0 0 0) to (6.6943295 6.6943295 6.6943295)
  3 by 4 by 4 MPI processor grid
  restoring pair style lj/cut from restart
  360 atoms
  read_restart CPU = 0.026 seconds
include ${pot}_particles.lmp
include kalj_particles.lmp
mass * 1.0 #  set mass 1.0 for all types

pair_style lj/cut 2.5
#pair coeffs type1 type2 eps sigma
pair_coeff 1 1 1.0 1.00 2.5
pair_coeff 1 2 1.5 0.80 2.0
pair_coeff 2 2 0.5 0.88 2.2
pair_modify shift yes
reset_timestep 0

print "Setting up annealing run"
Setting up annealing run
dump 1 all atom ${dumptime} ${basename}.lammpstrj
dump 1 all atom 50000 ${basename}.lammpstrj
dump 1 all atom 50000 equil/kalj_T0.8_n360_v300_150000_4.lammpstrj
#dump_modify 1 sort id scale no

restart ${restarttime} ${basename}.restart
restart 150000 ${basename}.restart
restart 150000 equil/kalj_T0.8_n360_v300_150000_4.restart
restart ${steps} ${basename}.final.lmprestart
restart 150000 ${basename}.final.lmprestart
restart 150000 equil/kalj_T0.8_n360_v300_150000_4.final.lmprestart

thermo ${thermotime}
thermo 5000
timestep ${timestep}
timestep 0.002

neighbor 0.5 bin
neigh_modify every 1 delay ${neighborstep} check yes
neigh_modify every 1 delay 25 check yes

velocity all create ${temp} ${id} dist gaussian
velocity all create 0.8 ${id} dist gaussian
velocity all create 0.8 4 dist gaussian
fix 1 all nvt temp ${temp} ${temp} ${taut}
fix 1 all nvt temp 0.8 ${temp} ${taut}
fix 1 all nvt temp 0.8 0.8 ${taut}
fix 1 all nvt temp 0.8 0.8 0.2
Resetting global fix info from restart file:
  fix style: nvt, fix ID: 1
run ${steps}
run 150000
Generated 0 of 1 mixed pair_coeff terms from geometric mixing rule
All restart file global fix info was re-assigned
Neighbor list info ...
  update: every = 1 steps, delay = 25 steps, check = yes
  max neighbors/atom: 2000, page size: 100000
  master list distance cutoff = 3
  ghost atom cutoff = 3
  binsize = 1.5, bins = 5 5 5
  1 neighbor lists, perpetual/occasional/extra = 1 0 0
  (1) pair lj/cut, perpetual
      attributes: half, newton on
      pair build: half/bin/atomonly/newton
      stencil: half/bin/3d
      bin: standard
Per MPI rank memory allocation (min/avg/max) = 3.961 | 3.961 | 3.961 Mbytes
   Step          Temp          E_pair         E_mol          TotEng         Press     
         0   0.8           -6.1625728      0             -4.9659061      8.7839698    
      5000   0.77018091    -6.4079009      0             -5.2558386      7.1392014    
     10000   0.81112725    -6.3999254      0             -5.1866143      7.3186574    
     15000   0.77402343    -6.3444233      0             -5.1866132      7.5409047    
     20000   0.76392414    -6.3245757      0             -5.1818725      7.686056     
     25000   0.79949324    -6.3311516      0             -5.135243       7.8918196    
     30000   0.77118662    -6.356278       0             -5.2027113      7.4846272    
     35000   0.76250592    -6.2973592      0             -5.1567774      8.0951856    
     40000   0.81597635    -6.4798685      0             -5.2593039      6.7284728    
     45000   0.79054355    -6.2910526      0             -5.1085312      7.9847358    
     50000   0.78335375    -6.3015647      0             -5.1297981      7.823668     
     55000   0.77285179    -6.2268322      0             -5.0707747      8.1785698    
     60000   0.76837123    -6.345368       0             -5.1960127      7.487725     
     65000   0.88319954    -6.464907       0             -5.1437877      6.7995976    
     70000   0.80001996    -6.3612823      0             -5.1645857      7.4981252    
     75000   0.80247881    -6.3921922      0             -5.1918176      7.1764089    
     80000   0.80121528    -6.3773763      0             -5.1788918      7.3346868    
     85000   0.7992775     -6.3324536      0             -5.1368677      7.6924117    
     90000   0.80011147    -6.4034412      0             -5.2066078      7.2730471    
     95000   0.86596599    -6.3901349      0             -5.0947941      7.2485026    
    100000   0.8028807     -6.299387       0             -5.0984112      7.7107196    
    105000   0.83062988    -6.29095        0             -5.0484661      7.9054261    
    110000   0.79617194    -6.4143486      0             -5.2234081      7.0642341    
    115000   0.83997256    -6.4074215      0             -5.1509625      7.4315414    
    120000   0.77244501    -6.3217784      0             -5.1663294      7.6594524    
    125000   0.81105483    -6.424072       0             -5.2108692      7.213258     
    130000   0.75295105    -6.3597791      0             -5.2334898      7.4582873    
    135000   0.79323365    -6.2553366      0             -5.0687913      8.1409805    
    140000   0.82176972    -6.3873379      0             -5.1581074      7.2643849    
    145000   0.83304565    -6.2957837      0             -5.0496862      8.0482279    
    150000   0.77926153    -6.3408575      0             -5.1752121      7.6583179    
Loop time of 7.08959 on 48 procs for 150000 steps with 360 atoms

Performance: 3656065.943 tau/day, 21157.789 timesteps/s, 7.617 Matom-step/s
99.6% CPU use with 48 MPI tasks x 1 OpenMP threads

MPI task timing breakdown:
Section |  min time  |  avg time  |  max time  |%varavg| %total
---------------------------------------------------------------
Pair    | 0.44702    | 0.48066    | 0.52556    |   2.5 |  6.78
Neigh   | 0.063182   | 0.066886   | 0.069732   |   0.6 |  0.94
Comm    | 5.2378     | 5.3903     | 5.6205     |   4.3 | 76.03
Output  | 0.020381   | 0.020395   | 0.020549   |   0.0 |  0.29
Modify  | 0.63084    | 0.85903    | 1.0068     |  11.3 | 12.12
Other   |            | 0.2724     |            |       |  3.84

Nlocal:            7.5 ave          10 max           5 min
Histogram: 2 0 8 0 13 0 17 0 5 3
Nghost:        571.146 ave         586 max         553 min
Histogram: 3 1 4 6 3 8 11 6 3 3
Neighs:        431.917 ave         608 max         250 min
Histogram: 1 0 5 9 10 9 7 2 1 4

Total # of neighbors = 20732
Ave neighs/atom = 57.588889
Neighbor list builds = 3588
Dangerous builds = 0
Total wall time: 0:00:08
