
include ${pot}.lmp
include kalj.lmp
units lj
atom_style atomic

variable dimensions equal 3
variable density equal 1.2
variable fraca equal 0.8

dimension ${dimensions}
dimension 3
read_restart ${prevbasename}.final.lmprestart.${prevsteps}
read_restart equil/kalj_T0.475_n360_v300_30000000_4.final.lmprestart.${prevsteps}
read_restart equil/kalj_T0.475_n360_v300_30000000_4.final.lmprestart.30000000
Reading restart file ...
  restart file = 15 Sep 2022, LAMMPS = 15 Sep 2022
  restoring atom style atomic from restart
  orthogonal box = (0 0 0) to (6.6943295 6.6943295 6.6943295)
  3 by 4 by 4 MPI processor grid
  restoring pair style lj/cut from restart
  360 atoms
  read_restart CPU = 0.029 seconds
include ${pot}_particles.lmp
include kalj_particles.lmp
mass * 1.0 #  set mass 1.0 for all types

pair_style lj/cut 2.5
#pair coeffs type1 type2 eps sigma
pair_coeff 1 1 1.0 1.00 2.5
pair_coeff 1 2 1.5 0.80 2.0
pair_coeff 2 2 0.5 0.88 2.2
pair_modify shift yes
reset_timestep 0

print "Setting up annealing run"
Setting up annealing run
dump 1 all atom ${dumptime} ${basename}.lammpstrj
dump 1 all atom 10000000 ${basename}.lammpstrj
dump 1 all atom 10000000 equil/kalj_T0.45_n360_v300_100000000_4.lammpstrj
#dump_modify 1 sort id scale no

restart ${restarttime} ${basename}.restart
restart 100000000 ${basename}.restart
restart 100000000 equil/kalj_T0.45_n360_v300_100000000_4.restart
restart ${steps} ${basename}.final.lmprestart
restart 100000000 ${basename}.final.lmprestart
restart 100000000 equil/kalj_T0.45_n360_v300_100000000_4.final.lmprestart

thermo ${thermotime}
thermo 1000000
timestep ${timestep}
timestep 0.003

neighbor 0.5 bin
neigh_modify every 1 delay ${neighborstep} check yes
neigh_modify every 1 delay 25 check yes

velocity all create ${temp} ${id} dist gaussian
velocity all create 0.45 ${id} dist gaussian
velocity all create 0.45 4 dist gaussian
fix 1 all nvt temp ${temp} ${temp} ${taut}
fix 1 all nvt temp 0.45 ${temp} ${taut}
fix 1 all nvt temp 0.45 0.45 ${taut}
fix 1 all nvt temp 0.45 0.45 0.3
Resetting global fix info from restart file:
  fix style: nvt, fix ID: 1
run ${steps}
run 100000000
Generated 0 of 1 mixed pair_coeff terms from geometric mixing rule
All restart file global fix info was re-assigned
Neighbor list info ...
  update: every = 1 steps, delay = 25 steps, check = yes
  max neighbors/atom: 2000, page size: 100000
  master list distance cutoff = 3
  ghost atom cutoff = 3
  binsize = 1.5, bins = 5 5 5
  1 neighbor lists, perpetual/occasional/extra = 1 0 0
  (1) pair lj/cut, perpetual
      attributes: half, newton on
      pair build: half/bin/atomonly/newton
      stencil: half/bin/3d
      bin: standard
Per MPI rank memory allocation (min/avg/max) = 3.961 | 3.961 | 3.961 Mbytes
   Step          Temp          E_pair         E_mol          TotEng         Press     
         0   0.45          -6.997067       0             -6.323942       3.1599471    
   1000000   0.45640914    -7.0072745      0             -6.3245625      3.06605      
   2000000   0.43864841    -6.9992453      0             -6.3431004      3.2150282    
   3000000   0.43251407    -7.0470732      0             -6.4001042      2.8738939    
   4000000   0.50917331    -7.007124       0             -6.2454856      3.0969927    
   5000000   0.43269638    -6.9909155      0             -6.3436738      3.1345863    
   6000000   0.43183508    -7.0034607      0             -6.3575073      3.0601114    
   7000000   0.45894034    -7.0107212      0             -6.3242229      3.0731868    
   8000000   0.46488538    -7.0503572      0             -6.3549662      2.9356719    
   9000000   0.46698612    -6.9076876      0             -6.2091541      3.8172254    
  10000000   0.4426573     -7.00063        0             -6.3384885      3.0669071    
  11000000   0.41530122    -7.0093365      0             -6.3881151      3.043728     
  12000000   0.43338527    -6.9462263      0             -6.2979541      3.4774872    
  13000000   0.46251896    -6.9888297      0             -6.2969784      3.1272221    
  14000000   0.4807853     -7.0099652      0             -6.2907905      2.9827331    
  15000000   0.44376581    -7.0363072      0             -6.3725075      2.8663367    
  16000000   0.44260115    -7.0425834      0             -6.3805259      2.9815151    
  17000000   0.44808031    -6.9765005      0             -6.306247       3.2686199    
  18000000   0.43864559    -7.0391212      0             -6.3829805      2.8828235    
  19000000   0.48824994    -7.0083678      0             -6.2780273      3.1947532    
  20000000   0.4552811     -6.9961094      0             -6.3150848      3.2593031    
  21000000   0.49028929    -7.034409       0             -6.301018       3.038383     
  22000000   0.41799044    -6.9463304      0             -6.3210864      3.3835523    
  23000000   0.433556      -7.021809       0             -6.3732815      3.0568218    
  24000000   0.43661423    -6.9598055      0             -6.3067034      3.2577462    
  25000000   0.46639199    -6.9535804      0             -6.2559357      3.3197901    
  26000000   0.4613838     -7.0313582      0             -6.3412049      2.8656457    
  27000000   0.47684638    -7.0058046      0             -6.2925219      3.0292705    
  28000000   0.4279255     -6.9942809      0             -6.3541757      3.2239047    
  29000000   0.42764233    -6.9448864      0             -6.3052047      3.3448257    
  30000000   0.45052351    -6.9644328      0             -6.2905247      3.1300384    
  31000000   0.4673365     -7.0221931      0             -6.3231356      2.958726     
  32000000   0.46652269    -7.0818243      0             -6.3839841      2.6695143    
  33000000   0.48106928    -6.9826948      0             -6.2630954      3.0792406    
  34000000   0.45747935    -7.0187234      0             -6.3344106      3.0720304    
  35000000   0.45859523    -7.0707344      0             -6.3847524      2.6606157    
  36000000   0.44253285    -7.0014345      0             -6.3394791      2.9009189    
  37000000   0.44908837    -6.9960242      0             -6.3242628      3.0727801    
  38000000   0.42869905    -7.0417161      0             -6.4004537      2.8460542    
  39000000   0.46541145    -7.1004406      0             -6.4042626      2.3847761    
  40000000   0.42293895    -7.0665154      0             -6.4338692      2.6035192    
  41000000   0.45222575    -7.072864       0             -6.3964096      2.6597176    
  42000000   0.42396117    -7.0556358      0             -6.4214606      2.7328875    
  43000000   0.45517402    -7.0486076      0             -6.3677431      2.9049248    
  44000000   0.46953418    -7.1003737      0             -6.3980288      2.5336135    
  45000000   0.46409781    -7.0554157      0             -6.3612027      2.6857032    
  46000000   0.4600493     -7.0239385      0             -6.3357814      3.1343755    
  47000000   0.42875135    -6.9949289      0             -6.3535883      3.1564779    
  48000000   0.4141567     -6.9623585      0             -6.3428491      3.2637951    
  49000000   0.43636878    -7.0476242      0             -6.3948892      2.7928309    
  50000000   0.41573227    -7.0410795      0             -6.4192134      2.7626668    
  51000000   0.440712      -7.0319832      0             -6.3727515      2.9360825    
  52000000   0.47122699    -7.0347556      0             -6.3298786      3.0769336    
  53000000   0.47018713    -6.9304301      0             -6.2271085      3.6354356    
  54000000   0.43357372    -6.9618175      0             -6.3132635      3.2836983    
  55000000   0.45130378    -7.0423575      0             -6.3672823      2.7861872    
  56000000   0.43685999    -6.9346484      0             -6.2811786      3.4497538    
  57000000   0.43106034    -7.0138433      0             -6.3690488      2.9473294    
  58000000   0.46468985    -6.9968198      0             -6.3017212      3.0978942    
  59000000   0.42124078    -6.9883708      0             -6.3582648      3.2668349    
  60000000   0.43248497    -7.0286571      0             -6.3817317      2.8544847    
  61000000   0.44655682    -7.0100594      0             -6.3420848      3.0610438    
  62000000   0.43521132    -6.9585936      0             -6.30759        3.4003442    
  63000000   0.43083884    -6.9930658      0             -6.3486027      3.1705601    
  64000000   0.42256263    -6.9811863      0             -6.349103       3.2608603    
  65000000   0.45357776    -6.9944212      0             -6.3159445      3.1887713    
  66000000   0.4343151     -6.9822047      0             -6.3325417      3.2050605    
  67000000   0.43787461    -6.9583099      0             -6.3033224      3.2955082    
  68000000   0.46190395    -7.0116006      0             -6.3206693      3.0054579    
  69000000   0.46541054    -6.9593201      0             -6.2631435      3.4182755    
  70000000   0.45239959    -6.9970757      0             -6.3203613      3.1272097    
  71000000   0.46009824    -6.9967185      0             -6.3084882      3.2187911    
  72000000   0.46309015    -7.0730316      0             -6.3803259      2.704395     
  73000000   0.44401109    -7.03375        0             -6.3695835      2.8358477    
  74000000   0.44896499    -6.9977138      0             -6.326137       3.2613616    
  75000000   0.42736926    -7.0329108      0             -6.3936376      2.7387832    
  76000000   0.44161779    -7.0052157      0             -6.3446291      3.1858326    
  77000000   0.45544178    -6.9692829      0             -6.2880179      3.4294707    
  78000000   0.44047343    -6.96061        0             -6.3017352      3.3799344    
  79000000   0.4710049     -7.000979       0             -6.2964342      3.0651003    
  80000000   0.44968515    -6.995062       0             -6.322408       3.1791084    
  81000000   0.43434501    -7.0407242      0             -6.3910165      2.8726843    
  82000000   0.47351392    -6.9266281      0             -6.2183302      3.6357601    
  83000000   0.45261507    -7.0095532      0             -6.3325165      3.2330745    
  84000000   0.4551222     -7.0325847      0             -6.3517978      3.0278958    
  85000000   0.48031808    -6.9997335      0             -6.2812577      3.0968559    
  86000000   0.48321398    -7.0220304      0             -6.2992228      2.8535591    
  87000000   0.43350614    -6.9744856      0             -6.3260326      3.3082508    
  88000000   0.47118846    -7.0126261      0             -6.3078067      2.9292448    
  89000000   0.44563421    -7.0295998      0             -6.3630053      2.8796305    
  90000000   0.45966543    -7.0504225      0             -6.3628396      2.8612275    
  91000000   0.45541159    -6.9694314      0             -6.2882116      3.3094952    
  92000000   0.45820555    -6.9772394      0             -6.2918402      3.3092602    
  93000000   0.42639867    -7.0521984      0             -6.4143771      2.7688024    
  94000000   0.41067838    -7.0700916      0             -6.4557852      2.6229241    
  95000000   0.42220561    -7.0322829      0             -6.4007337      2.9191391    
  96000000   0.46453103    -7.0375052      0             -6.3426442      2.9894791    
  97000000   0.47077761    -6.9686945      0             -6.2644896      3.2842372    
  98000000   0.45096036    -6.9702809      0             -6.2957193      3.2694866    
  99000000   0.46257443    -7.0260125      0             -6.3340782      3.0021531    
 100000000   0.44044848    -7.0109999      0             -6.3521624      3.1761799    
Loop time of 4778.8 on 48 procs for 100000000 steps with 360 atoms

Performance: 5423957.096 tau/day, 20925.760 timesteps/s, 7.533 Matom-step/s
99.6% CPU use with 48 MPI tasks x 1 OpenMP threads

MPI task timing breakdown:
Section |  min time  |  avg time  |  max time  |%varavg| %total
---------------------------------------------------------------
Pair    | 293.4      | 319.46     | 336.16     |  48.1 |  6.68
Neigh   | 43.692     | 46.017     | 48.308     |  16.3 |  0.96
Comm    | 3540.3     | 3638.6     | 3773.4     | 103.4 | 76.14
Output  | 0.023351   | 0.023543   | 0.030407   |   0.7 |  0.00
Modify  | 461.96     | 595.26     | 698.89     | 259.4 | 12.46
Other   |            | 179.4      |            |       |  3.75

Nlocal:            7.5 ave          11 max           5 min
Histogram: 4 7 0 12 0 15 7 0 2 1
Nghost:        571.958 ave         587 max         559 min
Histogram: 4 1 10 6 3 9 5 7 1 2
Neighs:        434.375 ave         648 max         246 min
Histogram: 3 4 2 5 13 11 5 0 4 1

Total # of neighbors = 20850
Ave neighs/atom = 57.916667
Neighbor list builds = 2473083
Dangerous builds = 1532
Total wall time: 1:19:39
