
include ${pot}.lmp
include kalj.lmp
units lj
atom_style atomic

variable dimensions equal 3
variable density equal 1.2
variable fraca equal 0.8

dimension ${dimensions}
dimension 3
read_restart ${prevbasename}.final.lmprestart.${prevsteps}
read_restart equil/kalj_T0.55_n360_v300_3000000_4.final.lmprestart.${prevsteps}
read_restart equil/kalj_T0.55_n360_v300_3000000_4.final.lmprestart.3000000
Reading restart file ...
  restart file = 15 Sep 2022, LAMMPS = 15 Sep 2022
  restoring atom style atomic from restart
  orthogonal box = (0 0 0) to (6.6943295 6.6943295 6.6943295)
  3 by 4 by 4 MPI processor grid
  restoring pair style lj/cut from restart
  360 atoms
  read_restart CPU = 0.048 seconds
include ${pot}_particles.lmp
include kalj_particles.lmp
mass * 1.0 #  set mass 1.0 for all types

pair_style lj/cut 2.5
#pair coeffs type1 type2 eps sigma
pair_coeff 1 1 1.0 1.00 2.5
pair_coeff 1 2 1.5 0.80 2.0
pair_coeff 2 2 0.5 0.88 2.2
pair_modify shift yes
reset_timestep 0

print "Setting up annealing run"
Setting up annealing run
dump 1 all atom ${dumptime} ${basename}.lammpstrj
dump 1 all atom 1000000 ${basename}.lammpstrj
dump 1 all atom 1000000 equil/kalj_T0.5_n360_v300_10000000_4.lammpstrj
#dump_modify 1 sort id scale no

restart ${restarttime} ${basename}.restart
restart 10000000 ${basename}.restart
restart 10000000 equil/kalj_T0.5_n360_v300_10000000_4.restart
restart ${steps} ${basename}.final.lmprestart
restart 10000000 ${basename}.final.lmprestart
restart 10000000 equil/kalj_T0.5_n360_v300_10000000_4.final.lmprestart

thermo ${thermotime}
thermo 100000
timestep ${timestep}
timestep 0.003

neighbor 0.5 bin
neigh_modify every 1 delay ${neighborstep} check yes
neigh_modify every 1 delay 25 check yes

velocity all create ${temp} ${id} dist gaussian
velocity all create 0.5 ${id} dist gaussian
velocity all create 0.5 4 dist gaussian
fix 1 all nvt temp ${temp} ${temp} ${taut}
fix 1 all nvt temp 0.5 ${temp} ${taut}
fix 1 all nvt temp 0.5 0.5 ${taut}
fix 1 all nvt temp 0.5 0.5 0.3
Resetting global fix info from restart file:
  fix style: nvt, fix ID: 1
run ${steps}
run 10000000
Generated 0 of 1 mixed pair_coeff terms from geometric mixing rule
All restart file global fix info was re-assigned
Neighbor list info ...
  update: every = 1 steps, delay = 25 steps, check = yes
  max neighbors/atom: 2000, page size: 100000
  master list distance cutoff = 3
  ghost atom cutoff = 3
  binsize = 1.5, bins = 5 5 5
  1 neighbor lists, perpetual/occasional/extra = 1 0 0
  (1) pair lj/cut, perpetual
      attributes: half, newton on
      pair build: half/bin/atomonly/newton
      stencil: half/bin/3d
      bin: standard
Per MPI rank memory allocation (min/avg/max) = 3.961 | 3.961 | 3.961 Mbytes
   Step          Temp          E_pair         E_mol          TotEng         Press     
         0   0.5           -6.8409908      0             -6.0930742      4.2987209    
    100000   0.48912857    -6.9349107      0             -6.2032559      3.6504611    
    200000   0.51344462    -6.9256283      0             -6.1576008      3.7138047    
    300000   0.48392209    -6.9357067      0             -6.2118399      3.6393139    
    400000   0.50831264    -6.8496076      0             -6.0892566      4.0545275    
    500000   0.47475068    -6.9303265      0             -6.2201786      3.5085692    
    600000   0.50323845    -6.9576328      0             -6.2048719      3.3270002    
    700000   0.51747855    -6.9849552      0             -6.2108935      3.3259878    
    800000   0.5234261     -6.9061329      0             -6.1231747      3.7656702    
    900000   0.55111447    -6.9192228      0             -6.0948474      3.7463226    
   1000000   0.50377333    -6.8575237      0             -6.1039628      4.0185662    
   1100000   0.48617229    -6.9103578      0             -6.1831251      3.8232766    
   1200000   0.54799941    -6.922314       0             -6.1025982      3.7428683    
   1300000   0.51465147    -6.8354866      0             -6.0656538      4.2880734    
   1400000   0.50916437    -6.9333696      0             -6.1717445      3.6923868    
   1500000   0.46994406    -6.9254233      0             -6.2224653      3.5706711    
   1600000   0.50064448    -6.8911796      0             -6.1422989      3.9301052    
   1700000   0.4715684     -6.8973404      0             -6.1919527      3.7767925    
   1800000   0.50629418    -6.9123061      0             -6.1549744      3.7361232    
   1900000   0.50132635    -6.9071486      0             -6.157248       3.7755106    
   2000000   0.49215597    -6.9338651      0             -6.1976818      3.6491734    
   2100000   0.49938272    -6.9480178      0             -6.2010245      3.5395158    
   2200000   0.47870269    -6.9385643      0             -6.2225048      3.6238876    
   2300000   0.54050116    -6.8306629      0             -6.0221632      4.3517474    
   2400000   0.46340966    -6.9301116      0             -6.236928       3.7089718    
   2500000   0.5079399     -6.9410208      0             -6.1812274      3.5624476    
   2600000   0.53826686    -6.9153735      0             -6.110216       3.9861464    
   2700000   0.48854272    -6.8538514      0             -6.1230729      3.9389163    
   2800000   0.52904513    -6.9047301      0             -6.1133668      3.9060166    
   2900000   0.50247391    -6.8862275      0             -6.1346102      3.8388244    
   3000000   0.49978265    -6.8438421      0             -6.0962505      4.1119907    
   3100000   0.49384379    -6.9237506      0             -6.1850426      3.6021885    
   3200000   0.49751545    -6.9150029      0             -6.1708027      3.6307112    
   3300000   0.52035579    -6.8946657      0             -6.1163001      3.8424969    
   3400000   0.49047886    -6.8795438      0             -6.1458692      3.8853165    
   3500000   0.4890746     -6.9021205      0             -6.1705464      3.7377796    
   3600000   0.54091369    -6.843544       0             -6.0344273      4.1720685    
   3700000   0.48458991    -6.8845293      0             -6.1596636      4.0345409    
   3800000   0.48956142    -6.9669353      0             -6.234633       3.3518714    
   3900000   0.52322708    -6.8833717      0             -6.1007112      3.9679355    
   4000000   0.49605234    -6.8965571      0             -6.1545454      3.9151965    
   4100000   0.51210118    -6.8503385      0             -6.0843204      4.192438     
   4200000   0.50518243    -6.9722626      0             -6.2165938      3.3241085    
   4300000   0.49426763    -6.8544874      0             -6.1151454      4.2123109    
   4400000   0.46960313    -6.8359805      0             -6.1335325      4.2672838    
   4500000   0.50349272    -6.8090863      0             -6.0559451      4.3503876    
   4600000   0.52118966    -6.9319337      0             -6.1523208      3.5669342    
   4700000   0.51755255    -6.8560202      0             -6.0818479      4.0018065    
   4800000   0.516167      -6.9076948      0             -6.1355949      3.793937     
   4900000   0.48100577    -6.9185012      0             -6.1989968      3.7329558    
   5000000   0.50742391    -6.8943541      0             -6.1353325      3.85529      
   5100000   0.47835937    -6.9151559      0             -6.19961        3.6683731    
   5200000   0.52460084    -6.9454663      0             -6.1607509      3.4665769    
   5300000   0.48980906    -6.9286528      0             -6.1959801      3.59212      
   5400000   0.51293908    -6.9280577      0             -6.1607863      3.5996466    
   5500000   0.5106576     -6.9335341      0             -6.1696754      3.6323669    
   5600000   0.4965469     -6.8799628      0             -6.1372114      3.9186018    
   5700000   0.5094881     -6.8580204      0             -6.0959111      4.0818878    
   5800000   0.4986908     -6.8064193      0             -6.060461       4.3661572    
   5900000   0.51182074    -6.8796629      0             -6.1140644      3.8457529    
   6000000   0.50416505    -6.8676121      0             -6.1134652      3.9671857    
   6100000   0.49709794    -6.9180168      0             -6.1744411      3.7462957    
   6200000   0.49954507    -6.9245416      0             -6.1773054      3.7496896    
   6300000   0.47257544    -6.9401001      0             -6.233206       3.5966527    
   6400000   0.49765236    -6.9436626      0             -6.1992576      3.5845148    
   6500000   0.45083556    -6.9385199      0             -6.264145       3.6014346    
   6600000   0.52640064    -6.9317098      0             -6.1443021      3.6006717    
   6700000   0.48527702    -6.8504126      0             -6.124519       4.110428     
   6800000   0.50277747    -6.9178619      0             -6.1657906      3.6658371    
   6900000   0.46779832    -6.9173408      0             -6.2175925      3.7755462    
   7000000   0.45254511    -6.9699101      0             -6.292978       3.4487543    
   7100000   0.47843608    -6.8762313      0             -6.1605706      3.8734424    
   7200000   0.49816053    -6.9118397      0             -6.1666745      3.7785732    
   7300000   0.53426608    -6.8986852      0             -6.0995122      3.83765      
   7400000   0.51867703    -6.8964543      0             -6.1205999      3.8207524    
   7500000   0.50562316    -6.8504055      0             -6.0940776      4.2199048    
   7600000   0.49072586    -6.9848971      0             -6.250853       3.2824262    
   7700000   0.49789179    -6.981971       0             -6.2372079      3.4008766    
   7800000   0.50530011    -6.9413621      0             -6.1855173      3.5226739    
   7900000   0.46278089    -6.8892325      0             -6.1969894      3.7999078    
   8000000   0.50435031    -6.8409128      0             -6.0864888      4.161806     
   8100000   0.48872274    -6.9528576      0             -6.2218098      3.4133955    
   8200000   0.45634178    -6.9731889      0             -6.2905777      3.3834858    
   8300000   0.53823845    -6.9888866      0             -6.1837716      3.2608423    
   8400000   0.50229198    -6.9516837      0             -6.2003386      3.4541993    
   8500000   0.49338008    -6.9743932      0             -6.2363788      3.485903     
   8600000   0.52861962    -6.8920884      0             -6.1013616      3.9609468    
   8700000   0.49157241    -6.8864626      0             -6.1511522      3.8930149    
   8800000   0.51094357    -6.9563796      0             -6.1920932      3.309978     
   8900000   0.54466489    -6.8939976      0             -6.0792697      4.0995277    
   9000000   0.49813901    -6.8943947      0             -6.1492617      3.8082926    
   9100000   0.50113116    -6.8682935      0             -6.1186848      4.0585537    
   9200000   0.52524258    -6.9669095      0             -6.1812342      3.4446382    
   9300000   0.53737716    -6.8853844      0             -6.0815577      4.0569393    
   9400000   0.4696726     -6.8467823      0             -6.1442303      4.0808483    
   9500000   0.50293585    -6.9234233      0             -6.1711151      3.6322759    
   9600000   0.49407118    -6.9323821      0             -6.193334       3.5276365    
   9700000   0.50552633    -6.9471733      0             -6.1909902      3.4548376    
   9800000   0.44221343    -6.9005139      0             -6.2390363      3.735666     
   9900000   0.54120312    -6.9120614      0             -6.1025117      3.7666467    
  10000000   0.51314193    -6.9043025      0             -6.1367277      3.8168778    
Loop time of 475.248 on 48 procs for 10000000 steps with 360 atoms

Performance: 5453998.864 tau/day, 21041.662 timesteps/s, 7.575 Matom-step/s
99.6% CPU use with 48 MPI tasks x 1 OpenMP threads

MPI task timing breakdown:
Section |  min time  |  avg time  |  max time  |%varavg| %total
---------------------------------------------------------------
Pair    | 30.087     | 32.083     | 33.919     |  15.4 |  6.75
Neigh   | 4.7558     | 4.9332     | 5.1732     |   4.3 |  1.04
Comm    | 353.17     | 363.38     | 376.51     |  34.0 | 76.46
Output  | 0.034361   | 0.034452   | 0.036442   |   0.2 |  0.01
Modify  | 45.054     | 58.741     | 69.485     |  85.0 | 12.36
Other   |            | 16.07      |            |       |  3.38

Nlocal:            7.5 ave          11 max           3 min
Histogram: 1 0 1 7 0 16 15 3 4 1
Nghost:        575.438 ave         589 max         561 min
Histogram: 3 4 5 5 3 4 9 11 3 1
Neighs:        434.938 ave         597 max         198 min
Histogram: 1 0 2 3 7 12 11 4 5 3

Total # of neighbors = 20877
Ave neighs/atom = 57.991667
Neighbor list builds = 265780
Dangerous builds = 676
Total wall time: 0:07:55
