
include ${pot}.lmp
include kalj.lmp
units lj
atom_style atomic

variable dimensions equal 3
variable density equal 1.2
variable fraca equal 0.8

dimension ${dimensions}
dimension 3
read_restart ${prevbasename}.final.lmprestart.${steps}
read_restart equil/kalj_T0.9_n360_v300_150000_1.final.lmprestart.${steps}
read_restart equil/kalj_T0.9_n360_v300_150000_1.final.lmprestart.150000
Reading restart file ...
  restart file = 15 Sep 2022, LAMMPS = 15 Sep 2022
WARNING: Restart file used different # of processors: 48 vs. 64 (src/read_restart.cpp:659)
  restoring atom style atomic from restart
  orthogonal box = (0 0 0) to (6.6943295 6.6943295 6.6943295)
  4 by 4 by 4 MPI processor grid
  restoring pair style lj/cut from restart
  360 atoms
  read_restart CPU = 0.027 seconds
include ${pot}_particles.lmp
include kalj_particles.lmp
mass * 1.0 #  set mass 1.0 for all types

pair_style lj/cut 2.5
#pair coeffs type1 type2 eps sigma
pair_coeff 1 1 1.0 1.00 2.5
pair_coeff 1 2 1.5 0.80 2.0
pair_coeff 2 2 0.5 0.88 2.2
pair_modify shift yes
reset_timestep 0

print "Setting up equilibration run"
Setting up equilibration run
variable dumptime2 equal ${steps}/2000
variable dumptime2 equal 150000/2000
dump 1 all dcd ${dumptime2} ${basename}.unwrap.dcd
dump 1 all dcd 75 ${basename}.unwrap.dcd
dump 1 all dcd 75 prod/kalj_T0.9_n360_v300_prod_150000_1.unwrap.dcd
#dump 2 all dcd ${dumptime2} ${basename}.dcd
dump_modify 1 unwrap yes
#dump_modify 2 unwrap no

restart ${restarttime} ${basename}.restart
restart 150000 ${basename}.restart
restart 150000 prod/kalj_T0.9_n360_v300_prod_150000_1.restart
restart ${steps} ${basename}.final.lmprestart
restart 150000 ${basename}.final.lmprestart
restart 150000 prod/kalj_T0.9_n360_v300_prod_150000_1.final.lmprestart

thermo ${thermotime}
thermo 5000
timestep ${timestep}
timestep 0.002

neighbor 0.5 bin
neigh_modify every 1 delay ${neighborstep} check yes
neigh_modify every 1 delay 25 check yes

#velocity all create ${temp} ${id} dist gaussian
fix 1 all nvt temp ${temp} ${temp} ${taut}
fix 1 all nvt temp 0.9 ${temp} ${taut}
fix 1 all nvt temp 0.9 0.9 ${taut}
fix 1 all nvt temp 0.9 0.9 0.2
Resetting global fix info from restart file:
  fix style: nvt, fix ID: 1

variable steps4 equal ${steps}/4
variable steps4 equal 150000/4
run ${steps4}
run 37500
Generated 0 of 1 mixed pair_coeff terms from geometric mixing rule
All restart file global fix info was re-assigned
Neighbor list info ...
  update: every = 1 steps, delay = 25 steps, check = yes
  max neighbors/atom: 2000, page size: 100000
  master list distance cutoff = 3
  ghost atom cutoff = 3
  binsize = 1.5, bins = 5 5 5
  1 neighbor lists, perpetual/occasional/extra = 1 0 0
  (1) pair lj/cut, perpetual
      attributes: half, newton on
      pair build: half/bin/atomonly/newton
      stencil: half/bin/3d
      bin: standard
Per MPI rank memory allocation (min/avg/max) = 2.981 | 2.981 | 2.981 Mbytes
   Step          Temp          E_pair         E_mol          TotEng         Press     
         0   0.88738961    -6.1091323      0             -4.7817453      9.1294106    
      5000   0.92234423    -6.249797       0             -4.8701238      8.2745789    
     10000   0.83315459    -6.109219       0             -4.8629586      9.1040899    
     15000   0.85549614    -6.1796003      0             -4.8999206      8.6340182    
     20000   0.88108335    -6.1331166      0             -4.8151627      8.9670173    
     25000   0.84842639    -6.2878989      0             -5.0187944      7.9838616    
     30000   0.94915236    -6.1773567      0             -4.757583       8.9045037    
     35000   0.89729066    -6.2221423      0             -4.879945       8.3560586    
     37500   0.89970643    -6.193583       0             -4.8477721      8.7437445    
Loop time of 2.27744 on 64 procs for 37500 steps with 360 atoms

Performance: 2845296.523 tau/day, 16465.836 timesteps/s, 5.928 Matom-step/s
99.6% CPU use with 64 MPI tasks x 1 OpenMP threads

MPI task timing breakdown:
Section |  min time  |  avg time  |  max time  |%varavg| %total
---------------------------------------------------------------
Pair    | 0.083346   | 0.09091    | 0.10706    |   1.4 |  3.99
Neigh   | 0.013381   | 0.014512   | 0.01562    |   0.4 |  0.64
Comm    | 1.5477     | 1.6088     | 1.6855     |   2.9 | 70.64
Output  | 0.079403   | 0.12181    | 0.1732     |   7.9 |  5.35
Modify  | 0.22295    | 0.32639    | 0.39414    |   7.8 | 14.33
Other   |            | 0.115      |            |       |  5.05

Nlocal:          5.625 ave           9 max           3 min
Histogram: 1 10 0 18 0 23 8 0 3 1
Nghost:        533.766 ave         555 max         521 min
Histogram: 7 9 11 11 8 10 2 3 2 1
Neighs:        324.797 ave         525 max         170 min
Histogram: 1 3 11 10 20 9 6 3 0 1

Total # of neighbors = 20787
Ave neighs/atom = 57.741667
Neighbor list builds = 960
Dangerous builds = 0
Total wall time: 0:00:02
