
include ${pot}.lmp
include kalj.lmp
units lj
atom_style atomic

variable dimensions equal 3
variable density equal 1.2
variable fraca equal 0.8

dimension ${dimensions}
dimension 3
read_restart ${prevbasename}.final.lmprestart.${steps}
read_restart equil/kalj_T0.8_n360_v300_150000_1.final.lmprestart.${steps}
read_restart equil/kalj_T0.8_n360_v300_150000_1.final.lmprestart.150000
Reading restart file ...
  restart file = 15 Sep 2022, LAMMPS = 15 Sep 2022
WARNING: Restart file used different # of processors: 48 vs. 64 (src/read_restart.cpp:659)
  restoring atom style atomic from restart
  orthogonal box = (0 0 0) to (6.6943295 6.6943295 6.6943295)
  4 by 4 by 4 MPI processor grid
  restoring pair style lj/cut from restart
  360 atoms
  read_restart CPU = 0.016 seconds
include ${pot}_particles.lmp
include kalj_particles.lmp
mass * 1.0 #  set mass 1.0 for all types

pair_style lj/cut 2.5
#pair coeffs type1 type2 eps sigma
pair_coeff 1 1 1.0 1.00 2.5
pair_coeff 1 2 1.5 0.80 2.0
pair_coeff 2 2 0.5 0.88 2.2
pair_modify shift yes
reset_timestep 0

print "Setting up equilibration run"
Setting up equilibration run
variable dumptime2 equal ${steps}/2000
variable dumptime2 equal 150000/2000
dump 1 all dcd ${dumptime2} ${basename}.unwrap.dcd
dump 1 all dcd 75 ${basename}.unwrap.dcd
dump 1 all dcd 75 prod/kalj_T0.8_n360_v300_prod_150000_1.unwrap.dcd
#dump 2 all dcd ${dumptime2} ${basename}.dcd
dump_modify 1 unwrap yes
#dump_modify 2 unwrap no

restart ${restarttime} ${basename}.restart
restart 150000 ${basename}.restart
restart 150000 prod/kalj_T0.8_n360_v300_prod_150000_1.restart
restart ${steps} ${basename}.final.lmprestart
restart 150000 ${basename}.final.lmprestart
restart 150000 prod/kalj_T0.8_n360_v300_prod_150000_1.final.lmprestart

thermo ${thermotime}
thermo 5000
timestep ${timestep}
timestep 0.002

neighbor 0.5 bin
neigh_modify every 1 delay ${neighborstep} check yes
neigh_modify every 1 delay 25 check yes

#velocity all create ${temp} ${id} dist gaussian
fix 1 all nvt temp ${temp} ${temp} ${taut}
fix 1 all nvt temp 0.8 ${temp} ${taut}
fix 1 all nvt temp 0.8 0.8 ${taut}
fix 1 all nvt temp 0.8 0.8 0.2
Resetting global fix info from restart file:
  fix style: nvt, fix ID: 1

variable steps4 equal ${steps}/4
variable steps4 equal 150000/4
run ${steps4}
run 37500
Generated 0 of 1 mixed pair_coeff terms from geometric mixing rule
All restart file global fix info was re-assigned
Neighbor list info ...
  update: every = 1 steps, delay = 25 steps, check = yes
  max neighbors/atom: 2000, page size: 100000
  master list distance cutoff = 3
  ghost atom cutoff = 3
  binsize = 1.5, bins = 5 5 5
  1 neighbor lists, perpetual/occasional/extra = 1 0 0
  (1) pair lj/cut, perpetual
      attributes: half, newton on
      pair build: half/bin/atomonly/newton
      stencil: half/bin/3d
      bin: standard
Per MPI rank memory allocation (min/avg/max) = 2.981 | 2.981 | 2.981 Mbytes
   Step          Temp          E_pair         E_mol          TotEng         Press     
         0   0.79181795    -6.3791872      0             -5.1947595      7.4807272    
      5000   0.78042098    -6.3132665      0             -5.1458868      7.8652702    
     10000   0.81576341    -6.3384419      0             -5.1181958      7.5232269    
     15000   0.80177724    -6.3308356      0             -5.1315104      7.4799899    
     20000   0.77380105    -6.3417064      0             -5.184229       7.6525766    
     25000   0.75786826    -6.3966486      0             -5.263004       7.0761138    
     30000   0.79211959    -6.3758064      0             -5.1909276      7.3587395    
     35000   0.75556332    -6.3476084      0             -5.2174116      7.461653     
     37500   0.7921304     -6.335077       0             -5.150182       7.780904     
Loop time of 2.27423 on 64 procs for 37500 steps with 360 atoms

Performance: 2849309.822 tau/day, 16489.061 timesteps/s, 5.936 Matom-step/s
99.7% CPU use with 64 MPI tasks x 1 OpenMP threads

MPI task timing breakdown:
Section |  min time  |  avg time  |  max time  |%varavg| %total
---------------------------------------------------------------
Pair    | 0.075889   | 0.090523   | 0.10212    |   1.6 |  3.98
Neigh   | 0.012367   | 0.013559   | 0.015072   |   0.4 |  0.60
Comm    | 1.5504     | 1.6163     | 1.685      |   2.6 | 71.07
Output  | 0.06618    | 0.10814    | 0.15943    |   8.4 |  4.76
Modify  | 0.22624    | 0.31959    | 0.3842     |   7.3 | 14.05
Other   |            | 0.1261     |            |       |  5.54

Nlocal:          5.625 ave           8 max           3 min
Histogram: 2 0 12 0 13 0 20 0 15 2
Nghost:        538.297 ave         549 max         529 min
Histogram: 3 4 6 10 11 10 7 7 3 3
Neighs:        325.156 ave         446 max         163 min
Histogram: 2 4 3 10 3 11 7 11 5 8

Total # of neighbors = 20810
Ave neighs/atom = 57.805556
Neighbor list builds = 893
Dangerous builds = 0
Total wall time: 0:00:02
