
include ${pot}.lmp
include kalj.lmp
units lj
atom_style atomic

variable dimensions equal 3
variable density equal 1.2
variable fraca equal 0.8

dimension ${dimensions}
dimension 3
read_restart ${prevbasename}.final.lmprestart.${prevsteps}
read_restart equil/kalj_T0.55_n360_v300_3000000_1.final.lmprestart.${prevsteps}
read_restart equil/kalj_T0.55_n360_v300_3000000_1.final.lmprestart.3000000
Reading restart file ...
  restart file = 15 Sep 2022, LAMMPS = 15 Sep 2022
  restoring atom style atomic from restart
  orthogonal box = (0 0 0) to (6.6943295 6.6943295 6.6943295)
  4 by 4 by 4 MPI processor grid
  restoring pair style lj/cut from restart
  360 atoms
  read_restart CPU = 0.010 seconds
include ${pot}_particles.lmp
include kalj_particles.lmp
mass * 1.0 #  set mass 1.0 for all types

pair_style lj/cut 2.5
#pair coeffs type1 type2 eps sigma
pair_coeff 1 1 1.0 1.00 2.5
pair_coeff 1 2 1.5 0.80 2.0
pair_coeff 2 2 0.5 0.88 2.2
pair_modify shift yes
reset_timestep 0

print "Setting up annealing run"
Setting up annealing run
dump 1 all atom ${dumptime} ${basename}.lammpstrj
dump 1 all atom 1000000 ${basename}.lammpstrj
dump 1 all atom 1000000 equil/kalj_T0.5_n360_v300_10000000_1.lammpstrj
#dump_modify 1 sort id scale no

restart ${restarttime} ${basename}.restart
restart 10000000 ${basename}.restart
restart 10000000 equil/kalj_T0.5_n360_v300_10000000_1.restart
restart ${steps} ${basename}.final.lmprestart
restart 10000000 ${basename}.final.lmprestart
restart 10000000 equil/kalj_T0.5_n360_v300_10000000_1.final.lmprestart

thermo ${thermotime}
thermo 100000
timestep ${timestep}
timestep 0.003

neighbor 0.5 bin
neigh_modify every 1 delay ${neighborstep} check yes
neigh_modify every 1 delay 25 check yes

velocity all create ${temp} ${id} dist gaussian
velocity all create 0.5 ${id} dist gaussian
velocity all create 0.5 1 dist gaussian
fix 1 all nvt temp ${temp} ${temp} ${taut}
fix 1 all nvt temp 0.5 ${temp} ${taut}
fix 1 all nvt temp 0.5 0.5 ${taut}
fix 1 all nvt temp 0.5 0.5 0.3
Resetting global fix info from restart file:
  fix style: nvt, fix ID: 1
run ${steps}
run 10000000
Generated 0 of 1 mixed pair_coeff terms from geometric mixing rule
All restart file global fix info was re-assigned
Neighbor list info ...
  update: every = 1 steps, delay = 25 steps, check = yes
  max neighbors/atom: 2000, page size: 100000
  master list distance cutoff = 3
  ghost atom cutoff = 3
  binsize = 1.5, bins = 5 5 5
  1 neighbor lists, perpetual/occasional/extra = 1 0 0
  (1) pair lj/cut, perpetual
      attributes: half, newton on
      pair build: half/bin/atomonly/newton
      stencil: half/bin/3d
      bin: standard
Per MPI rank memory allocation (min/avg/max) = 3.961 | 3.961 | 3.961 Mbytes
   Step          Temp          E_pair         E_mol          TotEng         Press     
         0   0.5           -6.8757992      0             -6.1278825      3.89444      
    100000   0.53573175    -6.940117       0             -6.1387516      3.5548215    
    200000   0.47267155    -6.8679041      0             -6.1608663      4.1116262    
    300000   0.47141444    -6.9125184      0             -6.2073609      3.7166034    
    400000   0.47941828    -6.869366       0             -6.1522361      4.123834     
    500000   0.52296913    -6.8967281      0             -6.1144535      3.7912619    
    600000   0.49617607    -6.878758       0             -6.1365613      3.8903188    
    700000   0.48431321    -6.9765381      0             -6.2520862      3.2052686    
    800000   0.50755565    -6.9307799      0             -6.1715612      3.7251591    
    900000   0.51827782    -6.8975984      0             -6.1223412      4.0873371    
   1000000   0.49330956    -6.9278612      0             -6.1899523      3.6806756    
   1100000   0.50841817    -6.8913056      0             -6.1307968      3.8337801    
   1200000   0.51062894    -6.961309       0             -6.1974932      3.4979728    
   1300000   0.53943447    -6.8722961      0             -6.065392       4.1880876    
   1400000   0.49984341    -6.947487       0             -6.1998046      3.4580223    
   1500000   0.49120397    -6.8885641      0             -6.1538048      3.8847836    
   1600000   0.51095865    -6.8865259      0             -6.1222169      4.0387652    
   1700000   0.50740334    -6.9563063      0             -6.1973155      3.4593864    
   1800000   0.49762006    -6.9169087      0             -6.172552       3.8094517    
   1900000   0.47036015    -6.8934623      0             -6.1898819      3.9642685    
   2000000   0.5173745     -6.907734       0             -6.133828       3.5893664    
   2100000   0.4930506     -6.9609035      0             -6.2233819      3.3942884    
   2200000   0.48762677    -6.878184       0             -6.1487756      3.8231319    
   2300000   0.48177964    -6.9033926      0             -6.1827305      3.7267485    
   2400000   0.50934469    -6.9343668      0             -6.1724721      3.6087065    
   2500000   0.52959493    -6.9558719      0             -6.1636861      3.4028469    
   2600000   0.49763521    -6.9172944      0             -6.1729151      3.6965148    
   2700000   0.52324581    -6.8847108      0             -6.1020223      3.7745454    
   2800000   0.47862169    -6.9129183      0             -6.19698        3.6697441    
   2900000   0.49031862    -6.936904       0             -6.203469       3.5695401    
   3000000   0.48814834    -6.8755456      0             -6.1453571      4.0127296    
   3100000   0.51637501    -6.8877481      0             -6.1153371      3.8519071    
   3200000   0.47767366    -6.9081615      0             -6.1936413      3.7611018    
   3300000   0.50030859    -6.8087848      0             -6.0604066      4.4327287    
   3400000   0.50712682    -6.9116303      0             -6.1530531      3.6302621    
   3500000   0.50226199    -6.9085049      0             -6.1572046      3.7774188    
   3600000   0.50499319    -6.9245911      0             -6.1692055      3.61995      
   3700000   0.49283223    -6.8870104      0             -6.1498155      3.9112669    
   3800000   0.52789286    -6.8955742      0             -6.1059345      3.9523187    
   3900000   0.49845495    -6.893385       0             -6.1477795      3.8119826    
   4000000   0.49435711    -6.8710204      0             -6.1315445      4.0426505    
   4100000   0.48471241    -6.9979059      0             -6.2728569      3.1854449    
   4200000   0.51872024    -6.9273264      0             -6.1514073      3.5287485    
   4300000   0.47696143    -6.88288        0             -6.1694252      4.0590232    
   4400000   0.49852232    -6.966785       0             -6.2210787      3.3921508    
   4500000   0.5013453     -6.9218386      0             -6.1719096      3.7737565    
   4600000   0.53784878    -6.9059984      0             -6.1014663      3.8863178    
   4700000   0.50096572    -6.9050737      0             -6.1557125      3.6759525    
   4800000   0.47823657    -6.9387333      0             -6.2233711      3.4853814    
   4900000   0.49812734    -6.9100841      0             -6.1649687      3.6863151    
   5000000   0.49035283    -6.8394672      0             -6.105981       4.1860755    
   5100000   0.49937964    -6.8417281      0             -6.0947394      4.2639799    
   5200000   0.48786563    -6.9584092      0             -6.2286435      3.4860744    
   5300000   0.44521823    -6.8805871      0             -6.2146148      3.9912407    
   5400000   0.49219969    -6.936851       0             -6.2006023      3.5171861    
   5500000   0.54018734    -6.8866358      0             -6.0786056      3.9996972    
   5600000   0.4681069     -6.9594917      0             -6.2592818      3.4362945    
   5700000   0.47645628    -6.9301411      0             -6.2174419      3.4966762    
   5800000   0.49606434    -6.9389114      0             -6.1968818      3.6794218    
   5900000   0.51558344    -6.8616727      0             -6.0904458      4.0353222    
   6000000   0.47591914    -6.9690185      0             -6.2571228      3.2806913    
   6100000   0.51333987    -6.8240756      0             -6.0562047      4.3279581    
   6200000   0.50516738    -6.8649644      0             -6.1093182      4.0125461    
   6300000   0.50329152    -6.9254156      0             -6.1725754      3.6571874    
   6400000   0.4854355     -6.9105384      0             -6.1844078      3.6859056    
   6500000   0.50748692    -6.9191797      0             -6.1600639      3.7586983    
   6600000   0.53305905    -6.8482392      0             -6.0508717      4.1964613    
   6700000   0.50864494    -6.8414668      0             -6.0806187      4.1153055    
   6800000   0.51970938    -6.8877419      0             -6.1103433      3.9131652    
   6900000   0.50973407    -6.9627852      0             -6.200308       3.3629855    
   7000000   0.5150971     -6.8654898      0             -6.0949904      4.1040392    
   7100000   0.52287265    -6.9755311      0             -6.1934008      3.5679373    
   7200000   0.49686157    -6.8837849      0             -6.1405628      3.932109     
   7300000   0.57600735    -6.9528931      0             -6.0912821      3.5879248    
   7400000   0.50541439    -6.8979792      0             -6.1419635      3.8811583    
   7500000   0.5045415     -6.8389286      0             -6.0842186      4.1123948    
   7600000   0.47240097    -6.8332887      0             -6.1266556      4.2336998    
   7700000   0.50379992    -6.93485        0             -6.1812493      3.6066529    
   7800000   0.52714511    -6.8960057      0             -6.1074844      4.0432783    
   7900000   0.47607124    -6.8696275      0             -6.1575042      3.958572     
   8000000   0.51426706    -6.8917602      0             -6.1225024      3.900395     
   8100000   0.4971617     -6.8649881      0             -6.121317       4.0373053    
   8200000   0.51722741    -6.8880017      0             -6.1143157      3.964477     
   8300000   0.53362196    -6.8838015      0             -6.085592       3.8965077    
   8400000   0.46871308    -6.8425122      0             -6.1413956      4.1851048    
   8500000   0.50003484    -6.9243368      0             -6.1763681      3.6729567    
   8600000   0.5031584     -6.8659997      0             -6.1133585      4.0706565    
   8700000   0.51108348    -6.8908253      0             -6.1263296      3.7059869    
   8800000   0.48822527    -6.9485839      0             -6.2182803      3.4388566    
   8900000   0.50435756    -6.8861494      0             -6.1317145      3.9424403    
   9000000   0.52241626    -6.9965988      0             -6.2151511      3.3819293    
   9100000   0.4765125     -6.9300135      0             -6.2172302      3.577207     
   9200000   0.50033396    -6.9760392      0             -6.227623       3.2505649    
   9300000   0.51931729    -6.798447       0             -6.0216349      4.4590513    
   9400000   0.5229547     -6.9492609      0             -6.1670079      3.5446094    
   9500000   0.4823759     -6.913219       0             -6.191665       3.7210923    
   9600000   0.51923195    -6.9462329      0             -6.1695484      3.4028372    
   9700000   0.54390436    -6.9338366      0             -6.1202463      3.7229558    
   9800000   0.50258244    -6.9455906      0             -6.193811       3.6070599    
   9900000   0.44396085    -6.887811       0             -6.2237195      3.7991624    
  10000000   0.50782204    -6.8903085      0             -6.1306914      3.8897998    
Loop time of 612.854 on 64 procs for 10000000 steps with 360 atoms

Performance: 4229389.181 tau/day, 16317.088 timesteps/s, 5.874 Matom-step/s
99.7% CPU use with 64 MPI tasks x 1 OpenMP threads

MPI task timing breakdown:
Section |  min time  |  avg time  |  max time  |%varavg| %total
---------------------------------------------------------------
Pair    | 22.44      | 24.437     | 27.065     |  15.5 |  3.99
Neigh   | 3.7644     | 3.9858     | 4.3807     |   6.5 |  0.65
Comm    | 455.34     | 470.49     | 487.19     |  50.6 | 76.77
Output  | 0.01072    | 0.010906   | 0.017497   |   0.8 |  0.00
Modify  | 68.914     | 88.044     | 104.75     | 123.0 | 14.37
Other   |            | 25.89      |            |       |  4.22

Nlocal:          5.625 ave           8 max           3 min
Histogram: 2 0 11 0 17 0 18 0 11 5
Nghost:        533.234 ave         545 max         524 min
Histogram: 8 4 6 12 7 11 6 6 2 2
Neighs:        325.781 ave         462 max         183 min
Histogram: 4 5 2 11 10 10 7 4 7 4

Total # of neighbors = 20850
Ave neighs/atom = 57.916667
Neighbor list builds = 265711
Dangerous builds = 673
Total wall time: 0:10:12
