
include ${pot}.lmp
include kalj.lmp
units lj
atom_style atomic

variable dimensions equal 3
variable density equal 1.2
variable fraca equal 0.8

dimension ${dimensions}
dimension 3
read_restart ${prevbasename}.final.lmprestart.${prevsteps}
read_restart equil/kalj_T0.5_n360_v300_10000000_1.final.lmprestart.${prevsteps}
read_restart equil/kalj_T0.5_n360_v300_10000000_1.final.lmprestart.10000000
Reading restart file ...
  restart file = 15 Sep 2022, LAMMPS = 15 Sep 2022
  restoring atom style atomic from restart
  orthogonal box = (0 0 0) to (6.6943295 6.6943295 6.6943295)
  3 by 4 by 4 MPI processor grid
  restoring pair style lj/cut from restart
  360 atoms
  read_restart CPU = 0.033 seconds
include ${pot}_particles.lmp
include kalj_particles.lmp
mass * 1.0 #  set mass 1.0 for all types

pair_style lj/cut 2.5
#pair coeffs type1 type2 eps sigma
pair_coeff 1 1 1.0 1.00 2.5
pair_coeff 1 2 1.5 0.80 2.0
pair_coeff 2 2 0.5 0.88 2.2
pair_modify shift yes
reset_timestep 0

print "Setting up annealing run"
Setting up annealing run
dump 1 all atom ${dumptime} ${basename}.lammpstrj
dump 1 all atom 3000000 ${basename}.lammpstrj
dump 1 all atom 3000000 equil/kalj_T0.475_n360_v300_30000000_1.lammpstrj
#dump_modify 1 sort id scale no

restart ${restarttime} ${basename}.restart
restart 30000000 ${basename}.restart
restart 30000000 equil/kalj_T0.475_n360_v300_30000000_1.restart
restart ${steps} ${basename}.final.lmprestart
restart 30000000 ${basename}.final.lmprestart
restart 30000000 equil/kalj_T0.475_n360_v300_30000000_1.final.lmprestart

thermo ${thermotime}
thermo 300000
timestep ${timestep}
timestep 0.003

neighbor 0.5 bin
neigh_modify every 1 delay ${neighborstep} check yes
neigh_modify every 1 delay 25 check yes

velocity all create ${temp} ${id} dist gaussian
velocity all create 0.475 ${id} dist gaussian
velocity all create 0.475 1 dist gaussian
fix 1 all nvt temp ${temp} ${temp} ${taut}
fix 1 all nvt temp 0.475 ${temp} ${taut}
fix 1 all nvt temp 0.475 0.475 ${taut}
fix 1 all nvt temp 0.475 0.475 0.3
Resetting global fix info from restart file:
  fix style: nvt, fix ID: 1
run ${steps}
run 30000000
Generated 0 of 1 mixed pair_coeff terms from geometric mixing rule
All restart file global fix info was re-assigned
Neighbor list info ...
  update: every = 1 steps, delay = 25 steps, check = yes
  max neighbors/atom: 2000, page size: 100000
  master list distance cutoff = 3
  ghost atom cutoff = 3
  binsize = 1.5, bins = 5 5 5
  1 neighbor lists, perpetual/occasional/extra = 1 0 0
  (1) pair lj/cut, perpetual
      attributes: half, newton on
      pair build: half/bin/atomonly/newton
      stencil: half/bin/3d
      bin: standard
Per MPI rank memory allocation (min/avg/max) = 3.961 | 3.961 | 3.961 Mbytes
   Step          Temp          E_pair         E_mol          TotEng         Press     
         0   0.475         -6.8712569      0             -6.1607361      3.9798679    
    300000   0.48178343    -6.9384338      0             -6.2177661      3.5909012    
    600000   0.47138732    -6.9711579      0             -6.2660411      3.3262686    
    900000   0.4798715     -7.0029583      0             -6.2851505      3.0393231    
   1200000   0.51753789    -6.910069       0             -6.1359186      3.6949567    
   1500000   0.47535745    -6.9426601      0             -6.2316046      3.6709071    
   1800000   0.50299218    -6.9461537      0             -6.1937612      3.4924567    
   2100000   0.49868192    -6.9609579      0             -6.2150129      3.4764532    
   2400000   0.46257909    -6.998354       0             -6.3064128      3.2350771    
   2700000   0.48597553    -6.9939114      0             -6.2669731      3.2941552    
   3000000   0.47647573    -6.9648692      0             -6.2521409      3.306195     
   3300000   0.43008212    -6.9394703      0             -6.2961391      3.4463994    
   3600000   0.46695895    -6.9429859      0             -6.2444931      3.5226158    
   3900000   0.47533519    -6.9199788      0             -6.2089565      3.6630047    
   4200000   0.4764409     -6.9543197      0             -6.2416435      3.4347867    
   4500000   0.49629405    -6.9578975      0             -6.2155243      3.4532498    
   4800000   0.45898008    -6.9294397      0             -6.242882       3.5635597    
   5100000   0.4749395     -6.9714497      0             -6.2610193      3.4499169    
   5400000   0.46019747    -6.9578873      0             -6.2695086      3.3868644    
   5700000   0.46100115    -6.9652637      0             -6.2756828      3.2906361    
   6000000   0.4621166     -6.9578945      0             -6.2666451      3.4264115    
   6300000   0.50906731    -6.9789339      0             -6.2174541      3.1966849    
   6600000   0.45487752    -6.935183       0             -6.254762       3.5366852    
   6900000   0.47864452    -6.9443274      0             -6.228355       3.5269553    
   7200000   0.49174491    -7.0325182      0             -6.2969498      2.9812742    
   7500000   0.46611221    -6.9473358      0             -6.2501096      3.6563581    
   7800000   0.46877432    -6.9829865      0             -6.2817783      3.1948461    
   8100000   0.48584116    -6.9684422      0             -6.2417048      3.4399546    
   8400000   0.51099362    -6.9635995      0             -6.1992382      3.3226773    
   8700000   0.49068565    -6.936491       0             -6.2025071      3.493391     
   9000000   0.45660602    -6.9254564      0             -6.2424499      3.4370202    
   9300000   0.46676449    -6.9867009      0             -6.2884991      3.2282293    
   9600000   0.46939659    -6.9460374      0             -6.2438983      3.3757614    
   9900000   0.49190049    -6.9496852      0             -6.2138841      3.4853417    
  10200000   0.4728669     -6.8808148      0             -6.1734848      3.9320922    
  10500000   0.4506024     -6.9512173      0             -6.2771912      3.4740691    
  10800000   0.47029476    -6.9804757      0             -6.2769931      3.2895877    
  11100000   0.48003032    -6.995012       0             -6.2769667      3.0760754    
  11400000   0.4480977     -6.959213       0             -6.2889335      3.5704481    
  11700000   0.47839128    -7.0114059      0             -6.2958122      3.1693615    
  12000000   0.48708892    -6.9498664      0             -6.2212626      3.5574405    
  12300000   0.44177256    -6.9898029      0             -6.3289847      3.1943917    
  12600000   0.46171658    -7.0047124      0             -6.3140613      3.1205656    
  12900000   0.47323731    -7.0560045      0             -6.3481203      2.721272     
  13200000   0.50512829    -7.0474644      0             -6.2918766      2.7798769    
  13500000   0.46447385    -7.0099535      0             -6.3151781      3.0626478    
  13800000   0.4706059     -6.9492189      0             -6.2452709      3.40812      
  14100000   0.4766399     -7.0300237      0             -6.3170498      2.8798254    
  14400000   0.46245745    -7.0124288      0             -6.3206696      2.9988697    
  14700000   0.45852624    -6.9825214      0             -6.2966426      3.1672922    
  15000000   0.4885115     -7.0695251      0             -6.3387933      2.6892662    
  15300000   0.48462034    -6.9511213      0             -6.22621        3.5693727    
  15600000   0.46103508    -6.8886488      0             -6.1990171      3.9765145    
  15900000   0.45111984    -6.9330647      0             -6.2582646      3.5207025    
  16200000   0.48095633    -6.9204939      0             -6.2010634      3.6438402    
  16500000   0.47178095    -6.8990863      0             -6.1933807      3.9207348    
  16800000   0.52160265    -6.9280138      0             -6.1477831      3.7768241    
  17100000   0.46954797    -6.9357685      0             -6.233403       3.5895364    
  17400000   0.48447992    -6.9696675      0             -6.2449663      3.4658896    
  17700000   0.47288864    -6.9961825      0             -6.2888199      3.2405337    
  18000000   0.47994493    -6.9453926      0             -6.2274749      3.5948514    
  18300000   0.47857704    -6.9518257      0             -6.2359542      3.4539503    
  18600000   0.49908361    -6.9053135      0             -6.1587676      3.7095621    
  18900000   0.47547561    -6.9246559      0             -6.2134236      3.7280744    
  19200000   0.48619317    -6.9030143      0             -6.1757504      3.7075176    
  19500000   0.48647719    -7.000278       0             -6.2725892      3.2527704    
  19800000   0.47344592    -6.9765283      0             -6.2683321      3.3669583    
  20100000   0.4861968     -6.9506414      0             -6.223372       3.3869769    
  20400000   0.44815771    -6.9595938      0             -6.2892246      3.5009508    
  20700000   0.47872303    -6.9738767      0             -6.2577868      3.1495109    
  21000000   0.46692715    -6.9608949      0             -6.2624497      3.3763388    
  21300000   0.45245468    -6.8883191      0             -6.2115224      4.0067324    
  21600000   0.44130763    -6.9597482      0             -6.2996255      3.4330864    
  21900000   0.48866849    -6.9600288      0             -6.2290622      3.4681482    
  22200000   0.48642491    -6.9330569      0             -6.2054463      3.527198     
  22500000   0.5240651     -6.9660033      0             -6.1820892      3.4861747    
  22800000   0.46956732    -6.9016293      0             -6.1992349      3.7602355    
  23100000   0.50475714    -6.9881082      0             -6.2330757      3.2278298    
  23400000   0.49700219    -6.9315202      0             -6.1880878      3.4935377    
  23700000   0.4614705     -6.9424638      0             -6.2521808      3.5906198    
  24000000   0.44618563    -6.9345676      0             -6.2671483      3.4430431    
  24300000   0.47047738    -6.979815       0             -6.2760592      3.3843318    
  24600000   0.51214899    -6.9177652      0             -6.1516756      3.7841119    
  24900000   0.49298528    -6.9766391      0             -6.2392153      3.2304633    
  25200000   0.44812761    -6.9516469      0             -6.2813227      3.379133     
  25500000   0.4634634     -7.0168297      0             -6.3235657      3.0418568    
  25800000   0.47358419    -6.9094645      0             -6.2010615      3.7700477    
  26100000   0.49721269    -6.9764031      0             -6.2326558      3.5681226    
  26400000   0.4986595     -7.0238265      0             -6.277915       3.0386206    
  26700000   0.47888428    -6.9169731      0             -6.200642       3.7334238    
  27000000   0.49384532    -6.9596135      0             -6.2209032      3.452347     
  27300000   0.49217774    -6.889976       0             -6.1537602      3.7892644    
  27600000   0.48984672    -6.9407726      0             -6.2080436      3.5824691    
  27900000   0.48295325    -6.9511566      0             -6.228739       3.2963856    
  28200000   0.50179132    -6.9766589      0             -6.2260627      3.4490779    
  28500000   0.47518926    -6.9530794      0             -6.2422755      3.5148935    
  28800000   0.5085757     -6.9295949      0             -6.1688504      3.6873644    
  29100000   0.51904677    -6.9642687      0             -6.1878612      3.3204934    
  29400000   0.46079307    -6.9189301      0             -6.2296605      3.6353402    
  29700000   0.48299156    -6.928981       0             -6.2065061      3.6245362    
  30000000   0.48513088    -6.9423592      0             -6.2166842      3.4827692    
Loop time of 1437.95 on 48 procs for 30000000 steps with 360 atoms

Performance: 5407688.952 tau/day, 20862.997 timesteps/s, 7.511 Matom-step/s
99.6% CPU use with 48 MPI tasks x 1 OpenMP threads

MPI task timing breakdown:
Section |  min time  |  avg time  |  max time  |%varavg| %total
---------------------------------------------------------------
Pair    | 92.72      | 96.777     | 106.91     |  28.0 |  6.73
Neigh   | 13.705     | 14.385     | 15.518     |   9.3 |  1.00
Comm    | 1059.8     | 1093.2     | 1131.2     |  59.3 | 76.03
Output  | 0.034448   | 0.034625   | 0.041636   |   0.5 |  0.00
Modify  | 147.31     | 182.66     | 215.74     | 141.5 | 12.70
Other   |            | 50.88      |            |       |  3.54

Nlocal:            7.5 ave          10 max           3 min
Histogram: 1 0 3 0 6 16 0 8 10 4
Nghost:        574.021 ave         590 max         558 min
Histogram: 3 2 3 4 10 13 5 4 2 2
Neighs:        432.646 ave         604 max         169 min
Histogram: 1 0 2 3 6 11 9 10 3 3

Total # of neighbors = 20767
Ave neighs/atom = 57.686111
Neighbor list builds = 769991
Dangerous builds = 982
Total wall time: 0:23:59
