
include ${pot}.lmp
include kalj.lmp
units lj
atom_style atomic

variable dimensions equal 3
variable density equal 1.2
variable fraca equal 0.8

dimension ${dimensions}
dimension 3

#setup box
variable boxlength equal exp(ln(${volume})/${dimensions})
variable boxlength equal exp(ln(300)/${dimensions})
variable boxlength equal exp(ln(300)/3)
variable ntypea equal floor(${fraca}*${natoms})
variable ntypea equal floor(0.8*${natoms})
variable ntypea equal floor(0.8*360)
variable bstart equal ${ntypea}+1
variable bstart equal 288+1
variable ntypeb equal ${natoms}-${ntypea}
variable ntypeb equal 360-${ntypea}
variable ntypeb equal 360-288

lattice fcc ${density}
lattice fcc 1.2
Lattice spacing in x,y,z = 1.4938016 1.4938016 1.4938016
region box01 block 0 ${boxlength} 0 ${boxlength} 0 ${boxlength} units box
region box01 block 0 6.69432950082169 0 ${boxlength} 0 ${boxlength} units box
region box01 block 0 6.69432950082169 0 6.69432950082169 0 ${boxlength} units box
region box01 block 0 6.69432950082169 0 6.69432950082169 0 6.69432950082169 units box
create_box 2 box01 # 2 atomtypes
Created orthogonal box = (0 0 0) to (6.6943295 6.6943295 6.6943295)
  3 by 4 by 4 MPI processor grid
create_atoms 1 box
Created 365 atoms
  using lattice units in orthogonal box = (0 0 0) to (6.6943295 6.6943295 6.6943295)
  create_atoms CPU = 0.001 seconds

set atom ${bstart}* type 2
set atom 289* type 2
Setting atom values ...
  77 settings made for type
group extra id > ${natoms}
group extra id > 360
5 atoms in group extra
delete_atoms group extra
Deleted 5 atoms, new total = 360
group typea type 1
288 atoms in group typea
group typeb type 2
72 atoms in group typeb

include ${pot}_particles.lmp
include kalj_particles.lmp
mass * 1.0 #  set mass 1.0 for all types

pair_style lj/cut 2.5
#pair coeffs type1 type2 eps sigma
pair_coeff 1 1 1.0 1.00 2.5
pair_coeff 1 2 1.5 0.80 2.0
pair_coeff 2 2 0.5 0.88 2.2
pair_modify shift yes

print "Minimizing initial structure"
Minimizing initial structure
restart ${minsteps} ${basename}.final.lmprestart
restart 10000 ${basename}.final.lmprestart
restart 10000 equil/kalj_T2_n360_v300_10000_1.final.lmprestart
dump 1 all atom ${dumptime} ${basename}.lammpstrj
dump 1 all atom 10000 ${basename}.lammpstrj
dump 1 all atom 10000 equil/kalj_T2_n360_v300_10000_1.lammpstrj
thermo ${thermotime}
thermo 1000
timestep ${timestep}
timestep 0.001
neighbor 0.5 bin
neigh_modify every 1 delay 0 check yes
fix 1 all nve/limit 0.1
run ${minsteps}
run 10000
Generated 0 of 1 mixed pair_coeff terms from geometric mixing rule
Neighbor list info ...
  update: every = 1 steps, delay = 0 steps, check = yes
  max neighbors/atom: 2000, page size: 100000
  master list distance cutoff = 3
  ghost atom cutoff = 3
  binsize = 1.5, bins = 5 5 5
  1 neighbor lists, perpetual/occasional/extra = 1 0 0
  (1) pair lj/cut, perpetual
      attributes: half, newton on
      pair build: half/bin/atomonly/newton
      stencil: half/bin/3d
      bin: standard
Per MPI rank memory allocation (min/avg/max) = 3.961 | 3.966 | 3.968 Mbytes
   Step          Temp          E_pair         E_mol          TotEng         Press     
         0   0              32.410909      0              32.410909      205.0504     
      1000   17.076923      6.6773211      0              32.221552      101.29743    
      2000   17.271043      6.3885181      0              32.223121      99.851136    
      3000   17.50477       6.0412939      0              32.225512      98.246522    
      4000   17.154332      6.5628326      0              32.222855      100.78241    
      5000   17.218257      6.4678966      0              32.223539      100.04143    
      6000   17.426114      6.1565077      0              32.22307       98.464215    
      7000   17.469025      6.0911277      0              32.221878      98.532725    
      8000   17.919346      5.4208089      0              32.225164      94.787881    
      9000   17.394722      6.2031788      0              32.222784      99.243548    
     10000   17.337491      6.2872555      0              32.221253      99.454811    
Loop time of 0.513204 on 48 procs for 10000 steps with 360 atoms

Performance: 1683539.876 tau/day, 19485.415 timesteps/s, 7.015 Matom-step/s
99.4% CPU use with 48 MPI tasks x 1 OpenMP threads

MPI task timing breakdown:
Section |  min time  |  avg time  |  max time  |%varavg| %total
---------------------------------------------------------------
Pair    | 0.033172   | 0.035527   | 0.040496   |   0.9 |  6.92
Neigh   | 0.010865   | 0.011333   | 0.011978   |   0.3 |  2.21
Comm    | 0.36917    | 0.38057    | 0.39797    |   1.2 | 74.16
Output  | 0.012007   | 0.012023   | 0.012079   |   0.0 |  2.34
Modify  | 0.0018713  | 0.0020322  | 0.0022201  |   0.2 |  0.40
Other   |            | 0.07171    |            |       | 13.97

Nlocal:            7.5 ave          11 max           4 min
Histogram: 2 3 6 0 12 13 0 8 3 1
Nghost:        573.854 ave         592 max         556 min
Histogram: 3 4 3 11 3 7 5 5 2 5
Neighs:        431.792 ave         741 max         251 min
Histogram: 2 5 12 10 9 5 4 0 0 1

Total # of neighbors = 20726
Ave neighs/atom = 57.572222
Neighbor list builds = 606
Dangerous builds = 0
Total wall time: 0:00:01
