
include ${pot}.lmp
include kalj.lmp
units lj
atom_style atomic

variable dimensions equal 3
variable density equal 1.2
variable fraca equal 0.8

dimension ${dimensions}
dimension 3
read_restart ${prevbasename}.final.lmprestart.${prevsteps}
read_restart equil/kalj_T0.475_n360_v300_30000000_1.final.lmprestart.${prevsteps}
read_restart equil/kalj_T0.475_n360_v300_30000000_1.final.lmprestart.30000000
Reading restart file ...
  restart file = 15 Sep 2022, LAMMPS = 15 Sep 2022
  restoring atom style atomic from restart
  orthogonal box = (0 0 0) to (6.6943295 6.6943295 6.6943295)
  3 by 4 by 4 MPI processor grid
  restoring pair style lj/cut from restart
  360 atoms
  read_restart CPU = 0.039 seconds
include ${pot}_particles.lmp
include kalj_particles.lmp
mass * 1.0 #  set mass 1.0 for all types

pair_style lj/cut 2.5
#pair coeffs type1 type2 eps sigma
pair_coeff 1 1 1.0 1.00 2.5
pair_coeff 1 2 1.5 0.80 2.0
pair_coeff 2 2 0.5 0.88 2.2
pair_modify shift yes
reset_timestep 0

print "Setting up annealing run"
Setting up annealing run
dump 1 all atom ${dumptime} ${basename}.lammpstrj
dump 1 all atom 10000000 ${basename}.lammpstrj
dump 1 all atom 10000000 equil/kalj_T0.45_n360_v300_100000000_1.lammpstrj
#dump_modify 1 sort id scale no

restart ${restarttime} ${basename}.restart
restart 100000000 ${basename}.restart
restart 100000000 equil/kalj_T0.45_n360_v300_100000000_1.restart
restart ${steps} ${basename}.final.lmprestart
restart 100000000 ${basename}.final.lmprestart
restart 100000000 equil/kalj_T0.45_n360_v300_100000000_1.final.lmprestart

thermo ${thermotime}
thermo 1000000
timestep ${timestep}
timestep 0.003

neighbor 0.5 bin
neigh_modify every 1 delay ${neighborstep} check yes
neigh_modify every 1 delay 25 check yes

velocity all create ${temp} ${id} dist gaussian
velocity all create 0.45 ${id} dist gaussian
velocity all create 0.45 1 dist gaussian
fix 1 all nvt temp ${temp} ${temp} ${taut}
fix 1 all nvt temp 0.45 ${temp} ${taut}
fix 1 all nvt temp 0.45 0.45 ${taut}
fix 1 all nvt temp 0.45 0.45 0.3
Resetting global fix info from restart file:
  fix style: nvt, fix ID: 1
run ${steps}
run 100000000
Generated 0 of 1 mixed pair_coeff terms from geometric mixing rule
All restart file global fix info was re-assigned
Neighbor list info ...
  update: every = 1 steps, delay = 25 steps, check = yes
  max neighbors/atom: 2000, page size: 100000
  master list distance cutoff = 3
  ghost atom cutoff = 3
  binsize = 1.5, bins = 5 5 5
  1 neighbor lists, perpetual/occasional/extra = 1 0 0
  (1) pair lj/cut, perpetual
      attributes: half, newton on
      pair build: half/bin/atomonly/newton
      stencil: half/bin/3d
      bin: standard
Per MPI rank memory allocation (min/avg/max) = 3.961 | 3.961 | 3.961 Mbytes
   Step          Temp          E_pair         E_mol          TotEng         Press     
         0   0.45          -6.9423592      0             -6.2692342      3.4407293    
   1000000   0.42815111    -6.99099        0             -6.3505472      3.0995078    
   2000000   0.46573344    -7.0526153      0             -6.3559557      2.9294476    
   3000000   0.44711113    -7.0196617      0             -6.350858       3.0564125    
   4000000   0.434356      -7.0021599      0             -6.3524358      3.1984684    
   5000000   0.44391429    -7.0348872      0             -6.3708654      3.1498917    
   6000000   0.44662568    -6.9965112      0             -6.3284336      3.2927551    
   7000000   0.41673763    -7.0111245      0             -6.3877545      3.0108146    
   8000000   0.45739203    -7.0636071      0             -6.3794248      2.8390296    
   9000000   0.4655403     -6.9292891      0             -6.2329184      3.4767376    
  10000000   0.46980596    -6.96748        0             -6.2647285      3.2590377    
  11000000   0.45476708    -7.0102271      0             -6.3299713      3.1165003    
  12000000   0.44168229    -7.0048105      0             -6.3441274      2.9797263    
  13000000   0.44235499    -7.0283148      0             -6.3666255      2.9528592    
  14000000   0.44185806    -7.0246458      0             -6.3636998      3.0144838    
  15000000   0.41767262    -6.9468224      0             -6.3220537      3.4264651    
  16000000   0.43303331    -6.9829172      0             -6.3351715      3.3043299    
  17000000   0.45637992    -7.0197985      0             -6.3371302      3.00416      
  18000000   0.42763318    -7.0901571      0             -6.4504891      2.5348628    
  19000000   0.42343864    -7.0986488      0             -6.4652552      2.4793106    
  20000000   0.45996548    -7.0275532      0             -6.3395215      3.0072086    
  21000000   0.44678032    -7.0281182      0             -6.3598093      3.0617734    
  22000000   0.43506987    -7.0247652      0             -6.3739732      3.0070818    
  23000000   0.46412527    -7.0716066      0             -6.3773525      2.702384     
  24000000   0.46057988    -7.0340545      0             -6.3451038      3.0687647    
  25000000   0.45892477    -7.0478581      0             -6.3613831      2.9903105    
  26000000   0.44576344    -7.1285547      0             -6.4617669      2.3701639    
  27000000   0.42931046    -7.0302769      0             -6.3881         2.8875731    
  28000000   0.45571031    -7.0233864      0             -6.3417197      2.9017723    
  29000000   0.45204945    -7.0701137      0             -6.393923       2.7876765    
  30000000   0.44062071    -7.0274049      0             -6.3683098      3.0206549    
  31000000   0.44292931    -7.0540675      0             -6.3915191      2.6982173    
  32000000   0.43383681    -6.9733267      0             -6.3243791      3.142567     
  33000000   0.46658358    -7.0184585      0             -6.3205272      3.0686198    
  34000000   0.42964563    -7.0145802      0             -6.371902       3.0569209    
  35000000   0.45110241    -7.0135062      0             -6.3387322      3.0789638    
  36000000   0.42063054    -6.997126       0             -6.3679328      3.218161     
  37000000   0.43622254    -7.0331321      0             -6.3806159      2.8099601    
  38000000   0.43789899    -6.9794885      0             -6.3244646      3.0676407    
  39000000   0.44187944    -7.0036024      0             -6.3426244      3.0928632    
  40000000   0.4583002     -6.9931891      0             -6.3076484      3.1804876    
  41000000   0.43769875    -7.0025619      0             -6.3478375      3.0313514    
  42000000   0.44027507    -6.9970768      0             -6.3384986      3.1205449    
  43000000   0.46421076    -7.0081769      0             -6.313795       3.1588349    
  44000000   0.45909886    -7.0603716      0             -6.3736362      2.706682     
  45000000   0.45959442    -7.0439518      0             -6.3564752      2.8712564    
  46000000   0.49433988    -7.0453917      0             -6.3059416      2.9195751    
  47000000   0.44054767    -7.0110282      0             -6.3520423      3.1824762    
  48000000   0.42116681    -6.9982897      0             -6.3682943      3.1741493    
  49000000   0.43103338    -6.9953441      0             -6.35059        3.1237181    
  50000000   0.44357482    -7.0222747      0             -6.3587607      2.9629284    
  51000000   0.42788815    -6.9881451      0             -6.3480958      3.3833488    
  52000000   0.46239706    -7.0178047      0             -6.3261357      3.1923949    
  53000000   0.42777953    -7.0007626      0             -6.3608757      3.1598009    
  54000000   0.44803454    -6.9981451      0             -6.3279601      3.2445388    
  55000000   0.46319172    -7.0605183      0             -6.3676607      2.8526919    
  56000000   0.45984777    -7.0433948      0             -6.3555392      2.9163812    
  57000000   0.44800354    -6.9780073      0             -6.3078687      3.2704821    
  58000000   0.48776227    -7.0394682      0             -6.3098571      2.812852     
  59000000   0.45827871    -6.9881977      0             -6.3026891      3.2862926    
  60000000   0.43035386    -7.0407298      0             -6.3969922      2.9541494    
  61000000   0.45849742    -7.0035335      0             -6.3176978      3.298017     
  62000000   0.4700299     -7.0764232      0             -6.3733368      2.5886014    
  63000000   0.43105249    -6.943788       0             -6.2990053      3.4229154    
  64000000   0.44307336    -6.9537974      0             -6.2910334      3.3130501    
  65000000   0.47191405    -7.0202323      0             -6.3143275      3.1061195    
  66000000   0.45736883    -7.0152235      0             -6.331076       3.0876662    
  67000000   0.46460732    -6.9955036      0             -6.3005285      3.243603     
  68000000   0.43737204    -7.0138286      0             -6.3595929      3.1750279    
  69000000   0.46180762    -6.9454961      0             -6.2547089      3.455355     
  70000000   0.43733511    -7.037387       0             -6.3832065      2.8961696    
  71000000   0.40351601    -7.0127897      0             -6.409197       3.0685366    
  72000000   0.47324114    -7.0113342      0             -6.3034443      3.1161768    
  73000000   0.43177429    -6.9420958      0             -6.2962334      3.3639613    
  74000000   0.44259843    -7.0115606      0             -6.3495072      3.173418     
  75000000   0.46727085    -6.958999       0             -6.2600396      3.3215812    
  76000000   0.464482      -6.9612071      0             -6.2664195      3.4259132    
  77000000   0.43976948    -6.9869339      0             -6.3291121      3.2448699    
  78000000   0.45980562    -7.0041891      0             -6.3163965      3.2380286    
  79000000   0.42511655    -6.9540528      0             -6.3181493      3.4421831    
  80000000   0.44786842    -7.0415325      0             -6.371596       2.9899602    
  81000000   0.45929374    -6.98897        0             -6.3019431      3.111683     
  82000000   0.43939177    -6.9569065      0             -6.2996496      3.4167618    
  83000000   0.4230658     -7.0106308      0             -6.3777948      2.9050982    
  84000000   0.46658422    -6.9880215      0             -6.2900892      3.0687647    
  85000000   0.42812128    -7.0083902      0             -6.3679921      2.8997172    
  86000000   0.43474491    -7.0723515      0             -6.4220456      2.4345196    
  87000000   0.43777237    -6.9973517      0             -6.3425172      3.1289115    
  88000000   0.44596304    -7.0354653      0             -6.3683789      2.9100891    
  89000000   0.46746941    -7.0088956      0             -6.3096393      3.2285103    
  90000000   0.43676334    -6.9980965      0             -6.3447713      3.243812     
  91000000   0.4557939     -7.0126891      0             -6.3308974      3.0310464    
  92000000   0.4237541     -6.9344043      0             -6.3005388      3.5828543    
  93000000   0.4808367     -6.983046       0             -6.2637944      3.3756012    
  94000000   0.43256641    -6.9902927      0             -6.3432454      3.3204806    
  95000000   0.48779875    -6.9783917      0             -6.248726       3.2993941    
  96000000   0.44176443    -6.9776079      0             -6.316802       3.3223336    
  97000000   0.46082479    -7.0212944      0             -6.3319774      3.1226061    
  98000000   0.45249249    -6.9360983      0             -6.2592449      3.5968311    
  99000000   0.45500925    -7.0271525      0             -6.3465345      2.9205853    
 100000000   0.44666927    -7.0268641      0             -6.3587213      3.0126553    
Loop time of 4780.06 on 48 procs for 100000000 steps with 360 atoms

Performance: 5422522.720 tau/day, 20920.227 timesteps/s, 7.531 Matom-step/s
99.6% CPU use with 48 MPI tasks x 1 OpenMP threads

MPI task timing breakdown:
Section |  min time  |  avg time  |  max time  |%varavg| %total
---------------------------------------------------------------
Pair    | 302.71     | 320.01     | 345.74     |  49.3 |  6.69
Neigh   | 44.169     | 45.914     | 47.985     |  12.9 |  0.96
Comm    | 3516.3     | 3632.5     | 3771.5     | 107.1 | 75.99
Output  | 0.033665   | 0.033851   | 0.040724   |   0.5 |  0.00
Modify  | 474.64     | 602.22     | 707.79     | 259.1 | 12.60
Other   |            | 179.3      |            |       |  3.75

Nlocal:            7.5 ave          12 max           5 min
Histogram: 5 7 12 0 14 6 0 2 1 1
Nghost:        572.854 ave         588 max         556 min
Histogram: 3 3 3 2 8 12 6 5 2 4
Neighs:        432.521 ave         679 max         253 min
Histogram: 3 3 5 12 9 8 3 3 1 1

Total # of neighbors = 20761
Ave neighs/atom = 57.669444
Neighbor list builds = 2471279
Dangerous builds = 1574
Total wall time: 1:19:41
