
include ${pot}.lmp
include kalj.lmp
units lj
atom_style atomic

variable dimensions equal 3
variable density equal 1.2
variable fraca equal 0.8

dimension ${dimensions}
dimension 3

#setup box
variable boxlength equal exp(ln(${volume})/${dimensions})
variable boxlength equal exp(ln(300)/${dimensions})
variable boxlength equal exp(ln(300)/3)
variable ntypea equal floor(${fraca}*${natoms})
variable ntypea equal floor(0.8*${natoms})
variable ntypea equal floor(0.8*360)
variable bstart equal ${ntypea}+1
variable bstart equal 288+1
variable ntypeb equal ${natoms}-${ntypea}
variable ntypeb equal 360-${ntypea}
variable ntypeb equal 360-288

lattice fcc ${density}
lattice fcc 1.2
Lattice spacing in x,y,z = 1.4938016 1.4938016 1.4938016
region box01 block 0 ${boxlength} 0 ${boxlength} 0 ${boxlength} units box
region box01 block 0 6.69432950082169 0 ${boxlength} 0 ${boxlength} units box
region box01 block 0 6.69432950082169 0 6.69432950082169 0 ${boxlength} units box
region box01 block 0 6.69432950082169 0 6.69432950082169 0 6.69432950082169 units box
create_box 2 box01 # 2 atomtypes
Created orthogonal box = (0 0 0) to (6.6943295 6.6943295 6.6943295)
  4 by 4 by 4 MPI processor grid
create_atoms 1 box
Created 365 atoms
  using lattice units in orthogonal box = (0 0 0) to (6.6943295 6.6943295 6.6943295)
  create_atoms CPU = 0.001 seconds

set atom ${bstart}* type 2
set atom 289* type 2
Setting atom values ...
  77 settings made for type
group extra id > ${natoms}
group extra id > 360
5 atoms in group extra
delete_atoms group extra
Deleted 5 atoms, new total = 360
group typea type 1
288 atoms in group typea
group typeb type 2
72 atoms in group typeb

include ${pot}_particles.lmp
include kalj_particles.lmp
mass * 1.0 #  set mass 1.0 for all types

pair_style lj/cut 2.5
#pair coeffs type1 type2 eps sigma
pair_coeff 1 1 1.0 1.00 2.5
pair_coeff 1 2 1.5 0.80 2.0
pair_coeff 2 2 0.5 0.88 2.2
pair_modify shift yes

print "Minimizing initial structure"
Minimizing initial structure
restart ${minsteps} ${basename}.final.lmprestart
restart 10000 ${basename}.final.lmprestart
restart 10000 equil/kalj_T2_n360_v300_10000_1.final.lmprestart
dump 1 all atom ${dumptime} ${basename}.lammpstrj
dump 1 all atom 10000 ${basename}.lammpstrj
dump 1 all atom 10000 equil/kalj_T2_n360_v300_10000_1.lammpstrj
thermo ${thermotime}
thermo 1000
timestep ${timestep}
timestep 0.001
neighbor 0.5 bin
neigh_modify every 1 delay 0 check yes
fix 1 all nve/limit 0.1
run ${minsteps}
run 10000
Generated 0 of 1 mixed pair_coeff terms from geometric mixing rule
Neighbor list info ...
  update: every = 1 steps, delay = 0 steps, check = yes
  max neighbors/atom: 2000, page size: 100000
  master list distance cutoff = 3
  ghost atom cutoff = 3
  binsize = 1.5, bins = 5 5 5
  1 neighbor lists, perpetual/occasional/extra = 1 0 0
  (1) pair lj/cut, perpetual
      attributes: half, newton on
      pair build: half/bin/atomonly/newton
      stencil: half/bin/3d
      bin: standard
Per MPI rank memory allocation (min/avg/max) = 2.967 | 3.946 | 3.966 Mbytes
   Step          Temp          E_pair         E_mol          TotEng         Press     
         0   0              28.727941      0              28.727941      186.35386    
      1000   15.697915      5.0786413      0              28.560106      90.310807    
      2000   15.158934      5.8879547      0              28.563194      94.282307    
      3000   15.92877       4.7320291      0              28.558815      88.926987    
      4000   15.111296      5.9569495      0              28.560929      94.684126    
      5000   15.344458      5.6076141      0              28.560367      93.516277    
      6000   15.662022      5.133185       0              28.560959      91.310718    
      7000   15.908323      4.7646953      0              28.560895      89.317362    
      8000   15.451357      5.4492862      0              28.561941      91.971306    
      9000   15.403264      5.5200208      0              28.560736      92.702153    
     10000   15.650399      5.1507673      0              28.561156      90.788502    
Loop time of 0.649826 on 64 procs for 10000 steps with 360 atoms

Performance: 1329586.869 tau/day, 15388.737 timesteps/s, 5.540 Matom-step/s
99.5% CPU use with 64 MPI tasks x 1 OpenMP threads

MPI task timing breakdown:
Section |  min time  |  avg time  |  max time  |%varavg| %total
---------------------------------------------------------------
Pair    | 0.024821   | 0.026275   | 0.028624   |   0.5 |  4.04
Neigh   | 0.0080689  | 0.0087167  | 0.0093714  |   0.3 |  1.34
Comm    | 0.4907     | 0.51011    | 0.52704    |   1.6 | 78.50
Output  | 0.0017528  | 0.0017764  | 0.0018537  |   0.0 |  0.27
Modify  | 0.001682   | 0.0018266  | 0.0019911  |   0.2 |  0.28
Other   |            | 0.1011     |            |       | 15.56

Nlocal:          5.625 ave           8 max           2 min
Histogram: 2 1 0 9 0 18 18 0 9 7
Nghost:        533.703 ave         553 max         514 min
Histogram: 2 2 6 9 11 12 10 8 1 3
Neighs:        323.391 ave         520 max         129 min
Histogram: 3 2 7 10 10 9 12 5 5 1

Total # of neighbors = 20697
Ave neighs/atom = 57.491667
Neighbor list builds = 584
Dangerous builds = 0
Total wall time: 0:00:02
