
include ${pot}.lmp
include kalj.lmp
units lj
atom_style atomic

variable dimensions equal 3
variable density equal 1.2
variable fraca equal 0.8

dimension ${dimensions}
dimension 3
read_restart ${prevbasename}.final.lmprestart.${prevsteps}
read_restart equil/kalj_T0.8_n360_v300_150000_1.final.lmprestart.${prevsteps}
read_restart equil/kalj_T0.8_n360_v300_150000_1.final.lmprestart.150000
Reading restart file ...
  restart file = 15 Sep 2022, LAMMPS = 15 Sep 2022
  restoring atom style atomic from restart
  orthogonal box = (0 0 0) to (6.6943295 6.6943295 6.6943295)
  3 by 4 by 4 MPI processor grid
  restoring pair style lj/cut from restart
  360 atoms
  read_restart CPU = 0.041 seconds
include ${pot}_particles.lmp
include kalj_particles.lmp
mass * 1.0 #  set mass 1.0 for all types

pair_style lj/cut 2.5
#pair coeffs type1 type2 eps sigma
pair_coeff 1 1 1.0 1.00 2.5
pair_coeff 1 2 1.5 0.80 2.0
pair_coeff 2 2 0.5 0.88 2.2
pair_modify shift yes
reset_timestep 0

print "Setting up annealing run"
Setting up annealing run
dump 1 all atom ${dumptime} ${basename}.lammpstrj
dump 1 all atom 60000 ${basename}.lammpstrj
dump 1 all atom 60000 equil/kalj_T0.7_n360_v300_180000_1.lammpstrj
#dump_modify 1 sort id scale no

restart ${restarttime} ${basename}.restart
restart 180000 ${basename}.restart
restart 180000 equil/kalj_T0.7_n360_v300_180000_1.restart
restart ${steps} ${basename}.final.lmprestart
restart 180000 ${basename}.final.lmprestart
restart 180000 equil/kalj_T0.7_n360_v300_180000_1.final.lmprestart

thermo ${thermotime}
thermo 6000
timestep ${timestep}
timestep 0.003

neighbor 0.5 bin
neigh_modify every 1 delay ${neighborstep} check yes
neigh_modify every 1 delay 25 check yes

velocity all create ${temp} ${id} dist gaussian
velocity all create 0.7 ${id} dist gaussian
velocity all create 0.7 1 dist gaussian
fix 1 all nvt temp ${temp} ${temp} ${taut}
fix 1 all nvt temp 0.7 ${temp} ${taut}
fix 1 all nvt temp 0.7 0.7 ${taut}
fix 1 all nvt temp 0.7 0.7 0.3
Resetting global fix info from restart file:
  fix style: nvt, fix ID: 1
run ${steps}
run 180000
Generated 0 of 1 mixed pair_coeff terms from geometric mixing rule
All restart file global fix info was re-assigned
Neighbor list info ...
  update: every = 1 steps, delay = 25 steps, check = yes
  max neighbors/atom: 2000, page size: 100000
  master list distance cutoff = 3
  ghost atom cutoff = 3
  binsize = 1.5, bins = 5 5 5
  1 neighbor lists, perpetual/occasional/extra = 1 0 0
  (1) pair lj/cut, perpetual
      attributes: half, newton on
      pair build: half/bin/atomonly/newton
      stencil: half/bin/3d
      bin: standard
Per MPI rank memory allocation (min/avg/max) = 3.961 | 3.961 | 3.961 Mbytes
   Step          Temp          E_pair         E_mol          TotEng         Press     
         0   0.7           -6.3791872      0             -5.3321039      7.3708518    
      6000   0.71263347    -6.5217755      0             -5.4557946      6.4365555    
     12000   0.78872811    -6.473337       0             -5.2935312      6.7923357    
     18000   0.66872037    -6.5645218      0             -5.5642276      6.2118964    
     24000   0.71434987    -6.5206055      0             -5.4520571      6.3621028    
     30000   0.70835229    -6.4939534      0             -5.4343765      6.628628     
     36000   0.71948796    -6.4352215      0             -5.3589874      6.9315675    
     42000   0.70996421    -6.5074345      0             -5.4454464      6.5712725    
     48000   0.68124769    -6.5699821      0             -5.5509491      5.8941497    
     54000   0.69978671    -6.5158409      0             -5.4690766      6.5164786    
     60000   0.71401206    -6.4313923      0             -5.3633493      7.1212817    
     66000   0.69752618    -6.5178574      0             -5.4744745      6.3222288    
     72000   0.69358304    -6.4659871      0             -5.4285025      6.8351358    
     78000   0.69013072    -6.5492972      0             -5.5169767      6.1381521    
     84000   0.73179634    -6.4539787      0             -5.3593334      6.9236213    
     90000   0.76870643    -6.4744189      0             -5.3245622      6.7255496    
     96000   0.76177851    -6.4815974      0             -5.3421037      6.795829     
    102000   0.70383635    -6.5036785      0             -5.4508566      6.5967731    
    108000   0.72008658    -6.5291526      0             -5.4520231      6.401199     
    114000   0.68068966    -6.5803871      0             -5.5621888      5.9060672    
    120000   0.71315557    -6.5057246      0             -5.4389628      6.5748159    
    126000   0.70965169    -6.462418       0             -5.4008974      6.8885378    
    132000   0.72866745    -6.5604138      0             -5.4704487      6.2764384    
    138000   0.69526487    -6.4791034      0             -5.439103       6.8648471    
    144000   0.74771481    -6.5412483      0             -5.4227916      6.2671004    
    150000   0.71190328    -6.5289632      0             -5.4640746      6.4751595    
    156000   0.7278848     -6.596448       0             -5.5076536      6.0282317    
    162000   0.65690844    -6.5439421      0             -5.5613165      6.129792     
    168000   0.70041271    -6.4325943      0             -5.3848936      6.8253894    
    174000   0.69867044    -6.6369284      0             -5.5918339      5.756455     
    180000   0.62997643    -6.5574449      0             -5.6151051      6.0272861    
Loop time of 8.67262 on 48 procs for 180000 steps with 360 atoms

Performance: 5379691.599 tau/day, 20754.983 timesteps/s, 7.472 Matom-step/s
99.6% CPU use with 48 MPI tasks x 1 OpenMP threads

MPI task timing breakdown:
Section |  min time  |  avg time  |  max time  |%varavg| %total
---------------------------------------------------------------
Pair    | 0.54683    | 0.58538    | 0.61947    |   2.1 |  6.75
Neigh   | 0.1057     | 0.11026    | 0.11849    |   0.8 |  1.27
Comm    | 6.3953     | 6.6295     | 6.8482     |   4.5 | 76.44
Output  | 0.037136   | 0.037148   | 0.03731    |   0.0 |  0.43
Modify  | 0.88569    | 1.1135     | 1.3134     |  10.5 | 12.84
Other   |            | 0.1968     |            |       |  2.27

Nlocal:            7.5 ave          11 max           5 min
Histogram: 4 6 0 14 0 15 5 0 3 1
Nghost:        577.688 ave         593 max         556 min
Histogram: 1 1 5 3 5 9 7 10 4 3
Neighs:        433.271 ave         659 max         277 min
Histogram: 2 8 8 2 13 6 4 3 1 1

Total # of neighbors = 20797
Ave neighs/atom = 57.769444
Neighbor list builds = 5911
Dangerous builds = 429
Total wall time: 0:00:09
