
include ${pot}.lmp
include kalj.lmp
units lj
atom_style atomic

variable dimensions equal 3
variable density equal 1.2
variable fraca equal 0.8

dimension ${dimensions}
dimension 3
read_restart ${prevbasename}.final.lmprestart.${prevsteps}
read_restart equil/kalj_T0.9_n360_v300_150000_1.final.lmprestart.${prevsteps}
read_restart equil/kalj_T0.9_n360_v300_150000_1.final.lmprestart.150000
Reading restart file ...
  restart file = 15 Sep 2022, LAMMPS = 15 Sep 2022
  restoring atom style atomic from restart
  orthogonal box = (0 0 0) to (6.6943295 6.6943295 6.6943295)
  3 by 4 by 4 MPI processor grid
  restoring pair style lj/cut from restart
  360 atoms
  read_restart CPU = 0.043 seconds
include ${pot}_particles.lmp
include kalj_particles.lmp
mass * 1.0 #  set mass 1.0 for all types

pair_style lj/cut 2.5
#pair coeffs type1 type2 eps sigma
pair_coeff 1 1 1.0 1.00 2.5
pair_coeff 1 2 1.5 0.80 2.0
pair_coeff 2 2 0.5 0.88 2.2
pair_modify shift yes
reset_timestep 0

print "Setting up annealing run"
Setting up annealing run
dump 1 all atom ${dumptime} ${basename}.lammpstrj
dump 1 all atom 50000 ${basename}.lammpstrj
dump 1 all atom 50000 equil/kalj_T0.8_n360_v300_150000_1.lammpstrj
#dump_modify 1 sort id scale no

restart ${restarttime} ${basename}.restart
restart 150000 ${basename}.restart
restart 150000 equil/kalj_T0.8_n360_v300_150000_1.restart
restart ${steps} ${basename}.final.lmprestart
restart 150000 ${basename}.final.lmprestart
restart 150000 equil/kalj_T0.8_n360_v300_150000_1.final.lmprestart

thermo ${thermotime}
thermo 5000
timestep ${timestep}
timestep 0.002

neighbor 0.5 bin
neigh_modify every 1 delay ${neighborstep} check yes
neigh_modify every 1 delay 25 check yes

velocity all create ${temp} ${id} dist gaussian
velocity all create 0.8 ${id} dist gaussian
velocity all create 0.8 1 dist gaussian
fix 1 all nvt temp ${temp} ${temp} ${taut}
fix 1 all nvt temp 0.8 ${temp} ${taut}
fix 1 all nvt temp 0.8 0.8 ${taut}
fix 1 all nvt temp 0.8 0.8 0.2
Resetting global fix info from restart file:
  fix style: nvt, fix ID: 1
run ${steps}
run 150000
Generated 0 of 1 mixed pair_coeff terms from geometric mixing rule
All restart file global fix info was re-assigned
Neighbor list info ...
  update: every = 1 steps, delay = 25 steps, check = yes
  max neighbors/atom: 2000, page size: 100000
  master list distance cutoff = 3
  ghost atom cutoff = 3
  binsize = 1.5, bins = 5 5 5
  1 neighbor lists, perpetual/occasional/extra = 1 0 0
  (1) pair lj/cut, perpetual
      attributes: half, newton on
      pair build: half/bin/atomonly/newton
      stencil: half/bin/3d
      bin: standard
Per MPI rank memory allocation (min/avg/max) = 3.961 | 3.961 | 3.961 Mbytes
   Step          Temp          E_pair         E_mol          TotEng         Press     
         0   0.8           -6.1091323      0             -4.9124656      9.0248344    
      5000   0.81320696    -6.3281157      0             -5.1116937      7.7570789    
     10000   0.76918029    -6.282531       0             -5.1319654      8.0288659    
     15000   0.86290517    -6.4127116      0             -5.1219493      7.2065609    
     20000   0.79127277    -6.3322966      0             -5.1486844      7.6145661    
     25000   0.80278971    -6.4746997      0             -5.2738601      6.7092616    
     30000   0.77282411    -6.3971176      0             -5.2411016      7.4423974    
     35000   0.83089527    -6.3178355      0             -5.0749547      7.866643     
     40000   0.81652873    -6.4697576      0             -5.2483668      6.8277452    
     45000   0.78336255    -6.3594196      0             -5.1876398      7.5612612    
     50000   0.79923883    -6.3109727      0             -5.1154446      7.7105463    
     55000   0.76094024    -6.3882473      0             -5.2500076      7.303675     
     60000   0.85500891    -6.2724021      0             -4.9934513      8.0971289    
     65000   0.75471023    -6.3937013      0             -5.2647806      7.3146964    
     70000   0.78959451    -6.3389395      0             -5.1578377      7.6780966    
     75000   0.76800309    -6.4408914      0             -5.2920868      6.9405155    
     80000   0.81658307    -6.3350324      0             -5.1135602      7.7672464    
     85000   0.85415919    -6.3087672      0             -5.0310874      7.9523466    
     90000   0.82560118    -6.3435617      0             -5.1085999      7.59341      
     95000   0.84199816    -6.3557001      0             -5.0962112      7.6998589    
    100000   0.84047508    -6.2945965      0             -5.0373858      7.9990968    
    105000   0.83398617    -6.2621087      0             -5.0146044      8.1427803    
    110000   0.84626779    -6.354844       0             -5.0889685      7.8225091    
    115000   0.86821977    -6.3588613      0             -5.0601492      7.4581144    
    120000   0.77923635    -6.4586779      0             -5.2930701      6.9004176    
    125000   0.78625302    -6.3246039      0             -5.1485004      7.6422202    
    130000   0.82073303    -6.2728805      0             -5.0452007      7.9585206    
    135000   0.76093158    -6.2469027      0             -5.1086759      8.2124402    
    140000   0.80934256    -6.3503142      0             -5.1396726      7.435445     
    145000   0.81182659    -6.381569       0             -5.1672117      7.3597912    
    150000   0.79181795    -6.3791872      0             -5.1947595      7.4807272    
Loop time of 7.13728 on 48 procs for 150000 steps with 360 atoms

Performance: 3631634.887 tau/day, 21016.406 timesteps/s, 7.566 Matom-step/s
99.6% CPU use with 48 MPI tasks x 1 OpenMP threads

MPI task timing breakdown:
Section |  min time  |  avg time  |  max time  |%varavg| %total
---------------------------------------------------------------
Pair    | 0.4501     | 0.48375    | 0.5651     |   3.2 |  6.78
Neigh   | 0.063186   | 0.066761   | 0.070337   |   0.7 |  0.94
Comm    | 5.211      | 5.3867     | 5.5554     |   4.1 | 75.47
Output  | 0.013885   | 0.013911   | 0.014105   |   0.0 |  0.19
Modify  | 0.70388    | 0.90958    | 1.0817     |  10.0 | 12.74
Other   |            | 0.2766     |            |       |  3.87

Nlocal:            7.5 ave          10 max           5 min
Histogram: 2 0 9 0 14 0 14 0 4 5
Nghost:        576.021 ave         592 max         565 min
Histogram: 3 8 8 6 5 6 7 2 2 1
Neighs:        432.833 ave         559 max         298 min
Histogram: 3 1 6 10 4 6 7 1 3 7

Total # of neighbors = 20776
Ave neighs/atom = 57.711111
Neighbor list builds = 3577
Dangerous builds = 0
Total wall time: 0:00:08
