
include ${pot}.lmp
include kalj.lmp
units lj
atom_style atomic

variable dimensions equal 3
variable density equal 1.2
variable fraca equal 0.8

dimension ${dimensions}
dimension 3
read_restart ${prevbasename}.final.lmprestart.${prevsteps}
read_restart equil/kalj_T1.5_n360_v300_10000_1.final.lmprestart.${prevsteps}
read_restart equil/kalj_T1.5_n360_v300_10000_1.final.lmprestart.10000
Reading restart file ...
  restart file = 15 Sep 2022, LAMMPS = 15 Sep 2022
  restoring atom style atomic from restart
  orthogonal box = (0 0 0) to (6.6943295 6.6943295 6.6943295)
  4 by 4 by 4 MPI processor grid
  restoring pair style lj/cut from restart
  360 atoms
  read_restart CPU = 0.011 seconds
include ${pot}_particles.lmp
include kalj_particles.lmp
mass * 1.0 #  set mass 1.0 for all types

pair_style lj/cut 2.5
#pair coeffs type1 type2 eps sigma
pair_coeff 1 1 1.0 1.00 2.5
pair_coeff 1 2 1.5 0.80 2.0
pair_coeff 2 2 0.5 0.88 2.2
pair_modify shift yes
reset_timestep 0

print "Setting up annealing run"
Setting up annealing run
dump 1 all atom ${dumptime} ${basename}.lammpstrj
dump 1 all atom 10000 ${basename}.lammpstrj
dump 1 all atom 10000 equil/kalj_T1_n360_v300_50000_1.lammpstrj
#dump_modify 1 sort id scale no

restart ${restarttime} ${basename}.restart
restart 30000 ${basename}.restart
restart 30000 equil/kalj_T1_n360_v300_50000_1.restart
restart ${steps} ${basename}.final.lmprestart
restart 50000 ${basename}.final.lmprestart
restart 50000 equil/kalj_T1_n360_v300_50000_1.final.lmprestart

thermo ${thermotime}
thermo 2000
timestep ${timestep}
timestep 0.002

neighbor 0.5 bin
neigh_modify every 1 delay ${neighborstep} check yes
neigh_modify every 1 delay 20 check yes

velocity all create ${temp} ${id} dist gaussian
velocity all create 1 ${id} dist gaussian
velocity all create 1 1 dist gaussian
fix 1 all nvt temp ${temp} ${temp} ${taut}
fix 1 all nvt temp 1 ${temp} ${taut}
fix 1 all nvt temp 1 1 ${taut}
fix 1 all nvt temp 1 1 0.2
Resetting global fix info from restart file:
  fix style: nvt, fix ID: 1
run ${steps}
run 50000
Generated 0 of 1 mixed pair_coeff terms from geometric mixing rule
All restart file global fix info was re-assigned
Neighbor list info ...
  update: every = 1 steps, delay = 20 steps, check = yes
  max neighbors/atom: 2000, page size: 100000
  master list distance cutoff = 3
  ghost atom cutoff = 3
  binsize = 1.5, bins = 5 5 5
  1 neighbor lists, perpetual/occasional/extra = 1 0 0
  (1) pair lj/cut, perpetual
      attributes: half, newton on
      pair build: half/bin/atomonly/newton
      stencil: half/bin/3d
      bin: standard
Per MPI rank memory allocation (min/avg/max) = 3.961 | 3.961 | 3.961 Mbytes
   Step          Temp          E_pair         E_mol          TotEng         Press     
         0   1             -5.1879447      0             -3.6921114      14.830361    
      2000   0.9537141     -6.1079405      0             -4.6813431      9.2300605    
      4000   1.0109608     -5.9984582      0             -4.4862293      10.18483     
      6000   1.0885368     -6.0049447      0             -4.3766751      9.92974      
      8000   1.0128531     -6.0123283      0             -4.4972689      9.9815782    
     10000   0.95315199    -5.9961453      0             -4.5703887      9.8643363    
     12000   1.0178156     -5.8568226      0             -4.3343401      10.79559     
     14000   1.0468474     -6.0301652      0             -4.4642559      9.9415315    
     16000   1.0326374     -5.9961114      0             -4.4514579      9.9702424    
     18000   1.0203875     -6.0579563      0             -4.5316266      9.7597579    
     20000   1.0604814     -5.8919897      0             -4.3056863      10.563076    
     22000   0.97477634    -6.0460056      0             -4.5879026      9.7620221    
     24000   0.98944321    -6.0188448      0             -4.5388026      10.064776    
     26000   1.0480739     -6.0789148      0             -4.511171       9.6718041    
     28000   0.96063584    -6.0008393      0             -4.5638882      9.7576318    
     30000   1.0288806     -5.9567303      0             -4.4176964      10.268277    
     32000   1.051338      -6.0727939      0             -4.5001675      9.422954     
     34000   0.94632302    -6.0412778      0             -4.6257363      9.6918973    
     36000   0.93623877    -6.028523       0             -4.6280659      9.5672253    
     38000   0.99730117    -5.9817721      0             -4.4899758      10.115235    
     40000   0.97146013    -5.9485764      0             -4.495434       10.231914    
     42000   0.93023278    -5.991057       0             -4.5995838      9.6531589    
     44000   1.0333535     -6.0213124      0             -4.4755878      9.9617913    
     46000   0.92789652    -5.9985171      0             -4.6105385      9.7448489    
     48000   0.971638      -6.0053465      0             -4.551938       9.9619493    
     50000   1.0406923     -5.9300831      0             -4.373381       10.429671    
Loop time of 3.20431 on 64 procs for 50000 steps with 360 atoms

Performance: 2696365.227 tau/day, 15603.965 timesteps/s, 5.617 Matom-step/s
99.6% CPU use with 64 MPI tasks x 1 OpenMP threads

MPI task timing breakdown:
Section |  min time  |  avg time  |  max time  |%varavg| %total
---------------------------------------------------------------
Pair    | 0.11075    | 0.1222     | 0.13554    |   1.5 |  3.81
Neigh   | 0.01947    | 0.020639   | 0.023005   |   0.5 |  0.64
Comm    | 2.3412     | 2.4203     | 2.5022     |   3.3 | 75.53
Output  | 0.0034932  | 0.0035276  | 0.0038261  |   0.1 |  0.11
Modify  | 0.36201    | 0.46853    | 0.55003    |   8.3 | 14.62
Other   |            | 0.1692     |            |       |  5.28

Nlocal:          5.625 ave           9 max           3 min
Histogram: 1 11 0 20 0 17 10 0 4 1
Nghost:        536.672 ave         545 max         526 min
Histogram: 2 4 3 9 9 7 10 9 7 4
Neighs:        325.016 ave         527 max         190 min
Histogram: 5 5 13 10 11 8 7 1 3 1

Total # of neighbors = 20801
Ave neighs/atom = 57.780556
Neighbor list builds = 1367
Dangerous builds = 0
Total wall time: 0:00:03
