
include ${pot}.lmp
include kalj.lmp
units lj
atom_style atomic

variable dimensions equal 3
variable density equal 1.2
variable fraca equal 0.8

dimension ${dimensions}
dimension 3
read_restart ${prevbasename}.final.lmprestart.${prevsteps}
read_restart equil/kalj_T0.6_n360_v300_1000000_1.final.lmprestart.${prevsteps}
read_restart equil/kalj_T0.6_n360_v300_1000000_1.final.lmprestart.1000000
Reading restart file ...
  restart file = 15 Sep 2022, LAMMPS = 15 Sep 2022
  restoring atom style atomic from restart
  orthogonal box = (0 0 0) to (6.6943295 6.6943295 6.6943295)
  4 by 4 by 4 MPI processor grid
  restoring pair style lj/cut from restart
  360 atoms
  read_restart CPU = 0.010 seconds
include ${pot}_particles.lmp
include kalj_particles.lmp
mass * 1.0 #  set mass 1.0 for all types

pair_style lj/cut 2.5
#pair coeffs type1 type2 eps sigma
pair_coeff 1 1 1.0 1.00 2.5
pair_coeff 1 2 1.5 0.80 2.0
pair_coeff 2 2 0.5 0.88 2.2
pair_modify shift yes
reset_timestep 0

print "Setting up annealing run"
Setting up annealing run
dump 1 all atom ${dumptime} ${basename}.lammpstrj
dump 1 all atom 300000 ${basename}.lammpstrj
dump 1 all atom 300000 equil/kalj_T0.55_n360_v300_3000000_1.lammpstrj
#dump_modify 1 sort id scale no

restart ${restarttime} ${basename}.restart
restart 3000000 ${basename}.restart
restart 3000000 equil/kalj_T0.55_n360_v300_3000000_1.restart
restart ${steps} ${basename}.final.lmprestart
restart 3000000 ${basename}.final.lmprestart
restart 3000000 equil/kalj_T0.55_n360_v300_3000000_1.final.lmprestart

thermo ${thermotime}
thermo 30000
timestep ${timestep}
timestep 0.003

neighbor 0.5 bin
neigh_modify every 1 delay ${neighborstep} check yes
neigh_modify every 1 delay 25 check yes

velocity all create ${temp} ${id} dist gaussian
velocity all create 0.55 ${id} dist gaussian
velocity all create 0.55 1 dist gaussian
fix 1 all nvt temp ${temp} ${temp} ${taut}
fix 1 all nvt temp 0.55 ${temp} ${taut}
fix 1 all nvt temp 0.55 0.55 ${taut}
fix 1 all nvt temp 0.55 0.55 0.3
Resetting global fix info from restart file:
  fix style: nvt, fix ID: 1
run ${steps}
run 3000000
Generated 0 of 1 mixed pair_coeff terms from geometric mixing rule
All restart file global fix info was re-assigned
Neighbor list info ...
  update: every = 1 steps, delay = 25 steps, check = yes
  max neighbors/atom: 2000, page size: 100000
  master list distance cutoff = 3
  ghost atom cutoff = 3
  binsize = 1.5, bins = 5 5 5
  1 neighbor lists, perpetual/occasional/extra = 1 0 0
  (1) pair lj/cut, perpetual
      attributes: half, newton on
      pair build: half/bin/atomonly/newton
      stencil: half/bin/3d
      bin: standard
Per MPI rank memory allocation (min/avg/max) = 3.961 | 3.961 | 3.961 Mbytes
   Step          Temp          E_pair         E_mol          TotEng         Press     
         0   0.55          -6.6533092      0             -5.8306009      5.424355     
     30000   0.56499728    -6.7926479      0             -5.9475061      4.5123099    
     60000   0.540795      -6.7876865      0             -5.9787473      4.4060749    
     90000   0.52724707    -6.7996694      0             -6.0109956      4.4383485    
    120000   0.57666687    -6.8364246      0             -5.9738271      4.3191354    
    150000   0.50380491    -6.7281801      0             -5.9745719      4.8678853    
    180000   0.57056479    -6.887857       0             -6.0343872      4.000124     
    210000   0.52138522    -6.8825173      0             -6.1026119      3.9119957    
    240000   0.56381994    -6.8013507      0             -5.95797        4.5358435    
    270000   0.56368595    -6.8898118      0             -6.0466315      3.9327014    
    300000   0.49713425    -6.8427236      0             -6.0990936      4.0940744    
    330000   0.55142265    -6.8561429      0             -6.0313066      4.1046875    
    360000   0.54567817    -6.8508374      0             -6.0345938      4.1728155    
    390000   0.53767004    -6.8090252      0             -6.0047605      4.3590802    
    420000   0.54298304    -6.7930812      0             -5.9808691      4.6754618    
    450000   0.5544349     -6.783574       0             -5.9542318      4.5247298    
    480000   0.59321973    -6.861026       0             -5.9736682      4.1398994    
    510000   0.58035662    -6.7421337      0             -5.8740169      4.7293699    
    540000   0.55813263    -6.8576637      0             -6.0227903      4.1068864    
    570000   0.56728934    -6.751506       0             -5.9029357      4.6848266    
    600000   0.52043646    -6.7959953      0             -6.0175091      4.5401494    
    630000   0.54333592    -6.8257042      0             -6.0129642      4.4019526    
    660000   0.52238736    -6.7623958      0             -5.9809914      4.6194065    
    690000   0.52026912    -6.8091207      0             -6.0308848      4.3466829    
    720000   0.55606129    -6.7928667      0             -5.9610917      4.3905435    
    750000   0.54890008    -6.8275618      0             -6.0064988      4.3452393    
    780000   0.57936799    -6.8105373      0             -5.9438993      4.3379535    
    810000   0.56049872    -6.8408134      0             -6.0024008      4.2102293    
    840000   0.50104235    -6.8049176      0             -6.0554417      4.3453066    
    870000   0.54754752    -6.7929807      0             -5.9739409      4.5812735    
    900000   0.55622814    -6.8263557      0             -5.9943311      4.2282306    
    930000   0.55061249    -6.7801419      0             -5.9565174      4.674946     
    960000   0.51639582    -6.8224409      0             -6.0499988      4.2534568    
    990000   0.49547184    -6.8924647      0             -6.1513214      3.9774606    
   1020000   0.56743601    -6.8257154      0             -5.9769257      4.2508805    
   1050000   0.51226695    -6.8157707      0             -6.0495047      4.2892301    
   1080000   0.54291597    -6.829323       0             -6.0172112      4.3297889    
   1110000   0.51638134    -6.8412497      0             -6.0688292      4.2359247    
   1140000   0.56322933    -6.8728775      0             -6.0303803      3.9906282    
   1170000   0.52058154    -6.8478186      0             -6.0691154      4.2038981    
   1200000   0.53503912    -6.8119489      0             -6.0116195      4.53906      
   1230000   0.5208594     -6.8404912      0             -6.0613723      4.1505711    
   1260000   0.5250372     -6.782237       0             -5.9968689      4.4548215    
   1290000   0.53533612    -6.8077123      0             -6.0069387      4.5583617    
   1320000   0.54083174    -6.8405628      0             -6.0315687      4.3321335    
   1350000   0.54343144    -6.7604151      0             -5.9475323      4.8561478    
   1380000   0.55723538    -6.7719504      0             -5.9384191      4.5781764    
   1410000   0.57226184    -6.8266928      0             -5.9706845      4.4729715    
   1440000   0.5580166     -6.7624508      0             -5.9277509      4.693403     
   1470000   0.54180234    -6.812435       0             -6.001989       4.3996125    
   1500000   0.56948022    -6.9004853      0             -6.0486379      3.8748341    
   1530000   0.51353162    -6.7594177      0             -5.99126        4.7421366    
   1560000   0.57008492    -6.7875334      0             -5.9347814      4.4624993    
   1590000   0.54696035    -6.7997522      0             -5.9815907      4.4453192    
   1620000   0.54176685    -6.7659934      0             -5.9556005      4.5733643    
   1650000   0.52587995    -6.860087       0             -6.0734582      3.9983713    
   1680000   0.56815048    -6.8603544      0             -6.0104959      4.1605231    
   1710000   0.56556896    -6.7938189      0             -5.947822       4.5734354    
   1740000   0.51254599    -6.8017325      0             -6.0350491      4.4617004    
   1770000   0.52484429    -6.7826577      0             -5.9975781      4.6219249    
   1800000   0.57300856    -6.7781136      0             -5.9209883      4.7379517    
   1830000   0.57201494    -6.7312142      0             -5.8755752      4.9707865    
   1860000   0.57390284    -6.7985263      0             -5.9400633      4.5184414    
   1890000   0.53173492    -6.7493945      0             -5.9540077      4.706127     
   1920000   0.49584035    -6.7892946      0             -6.0476001      4.4472039    
   1950000   0.57618198    -6.817195       0             -5.9553228      4.6477124    
   1980000   0.55194346    -6.7871924      0             -5.961577       4.6162173    
   2010000   0.6324507     -6.7548549      0             -5.808814       4.8044068    
   2040000   0.56200446    -6.8403         0             -5.999635       4.2908347    
   2070000   0.54276323    -6.7528044      0             -5.940921       4.7509291    
   2100000   0.52144818    -6.7707653      0             -5.9907658      4.7158511    
   2130000   0.50452003    -6.7450722      0             -5.9903943      4.730982     
   2160000   0.57151746    -6.7985133      0             -5.9436185      4.6948014    
   2190000   0.51562191    -6.8580112      0             -6.0867268      4.2475675    
   2220000   0.49153248    -6.7298059      0             -5.9945552      4.9399934    
   2250000   0.52135609    -6.7947754      0             -6.0149136      4.6079997    
   2280000   0.56666253    -6.7706812      0             -5.9230485      4.7444492    
   2310000   0.58006251    -6.7772325      0             -5.9095556      4.6143221    
   2340000   0.48670774    -6.8512106      0             -6.123177       4.0853167    
   2370000   0.54807885    -6.7993277      0             -5.9794931      4.4416716    
   2400000   0.53369679    -6.838435       0             -6.0401136      4.1504299    
   2430000   0.50283675    -6.782614       0             -6.030454       4.5029029    
   2460000   0.52988925    -6.7941603      0             -6.0015343      4.5385527    
   2490000   0.54645179    -6.8204324      0             -6.0030316      4.1735099    
   2520000   0.53304948    -6.8758196      0             -6.0784664      3.8288857    
   2550000   0.55023392    -6.7775378      0             -5.9544796      4.5507442    
   2580000   0.55023437    -6.7735691      0             -5.9505102      4.6644968    
   2610000   0.56869584    -6.7593141      0             -5.9086399      4.8148079    
   2640000   0.55860166    -6.7593125      0             -5.9237375      4.8384709    
   2670000   0.52032294    -6.8153881      0             -6.0370717      4.5268442    
   2700000   0.58614528    -6.7933279      0             -5.9165523      4.7699594    
   2730000   0.58657039    -6.8238297      0             -5.9464182      4.3324468    
   2760000   0.58061865    -6.8453768      0             -5.9768681      4.2939694    
   2790000   0.53455463    -6.7676106      0             -5.968006       4.704398     
   2820000   0.52871444    -6.7723654      0             -5.9814967      4.6486668    
   2850000   0.53418601    -6.7445021      0             -5.9454489      4.9341837    
   2880000   0.57645022    -6.8687453      0             -6.0064719      4.0057559    
   2910000   0.55082772    -6.8226133      0             -5.9986668      4.4198681    
   2940000   0.55855289    -6.8231412      0             -5.9876392      4.2584204    
   2970000   0.55751957    -6.8260126      0             -5.9920563      4.4156525    
   3000000   0.53828416    -6.8757992      0             -6.0706158      3.9402534    
Loop time of 183.408 on 64 procs for 3000000 steps with 360 atoms

Performance: 4239725.631 tau/day, 16356.966 timesteps/s, 5.889 Matom-step/s
99.7% CPU use with 64 MPI tasks x 1 OpenMP threads

MPI task timing breakdown:
Section |  min time  |  avg time  |  max time  |%varavg| %total
---------------------------------------------------------------
Pair    | 7.0378     | 7.3624     | 7.9874     |   7.2 |  4.01
Neigh   | 1.2129     | 1.2719     | 1.472      |   3.6 |  0.69
Comm    | 136.61     | 141.27     | 146.59     |  27.7 | 77.03
Output  | 0.0091425  | 0.0092361  | 0.010578   |   0.2 |  0.01
Modify  | 20.617     | 26.492     | 31.497     |  67.2 | 14.44
Other   |            | 7          |            |       |  3.82

Nlocal:          5.625 ave           8 max           4 min
Histogram: 12 0 19 0 0 18 0 11 0 4
Nghost:        532.469 ave         543 max         522 min
Histogram: 6 4 1 12 11 11 5 5 3 6
Neighs:        325.078 ave         486 max         201 min
Histogram: 4 7 10 10 11 8 5 3 4 2

Total # of neighbors = 20805
Ave neighs/atom = 57.791667
Neighbor list builds = 84820
Dangerous builds = 588
Total wall time: 0:03:03
