
include ${pot}.lmp
include kalj.lmp
units lj
atom_style atomic

variable dimensions equal 3
variable density equal 1.2
variable fraca equal 0.8

dimension ${dimensions}
dimension 3
read_restart ${prevbasename}.final.lmprestart.${prevsteps}
read_restart equil/kalj_T0.9_n360_v300_150000_1.final.lmprestart.${prevsteps}
read_restart equil/kalj_T0.9_n360_v300_150000_1.final.lmprestart.150000
Reading restart file ...
  restart file = 15 Sep 2022, LAMMPS = 15 Sep 2022
  restoring atom style atomic from restart
  orthogonal box = (0 0 0) to (6.6943295 6.6943295 6.6943295)
  4 by 4 by 4 MPI processor grid
  restoring pair style lj/cut from restart
  360 atoms
  read_restart CPU = 0.010 seconds
include ${pot}_particles.lmp
include kalj_particles.lmp
mass * 1.0 #  set mass 1.0 for all types

pair_style lj/cut 2.5
#pair coeffs type1 type2 eps sigma
pair_coeff 1 1 1.0 1.00 2.5
pair_coeff 1 2 1.5 0.80 2.0
pair_coeff 2 2 0.5 0.88 2.2
pair_modify shift yes
reset_timestep 0

print "Setting up annealing run"
Setting up annealing run
dump 1 all atom ${dumptime} ${basename}.lammpstrj
dump 1 all atom 50000 ${basename}.lammpstrj
dump 1 all atom 50000 equil/kalj_T0.8_n360_v300_150000_1.lammpstrj
#dump_modify 1 sort id scale no

restart ${restarttime} ${basename}.restart
restart 150000 ${basename}.restart
restart 150000 equil/kalj_T0.8_n360_v300_150000_1.restart
restart ${steps} ${basename}.final.lmprestart
restart 150000 ${basename}.final.lmprestart
restart 150000 equil/kalj_T0.8_n360_v300_150000_1.final.lmprestart

thermo ${thermotime}
thermo 5000
timestep ${timestep}
timestep 0.002

neighbor 0.5 bin
neigh_modify every 1 delay ${neighborstep} check yes
neigh_modify every 1 delay 25 check yes

velocity all create ${temp} ${id} dist gaussian
velocity all create 0.8 ${id} dist gaussian
velocity all create 0.8 1 dist gaussian
fix 1 all nvt temp ${temp} ${temp} ${taut}
fix 1 all nvt temp 0.8 ${temp} ${taut}
fix 1 all nvt temp 0.8 0.8 ${taut}
fix 1 all nvt temp 0.8 0.8 0.2
Resetting global fix info from restart file:
  fix style: nvt, fix ID: 1
run ${steps}
run 150000
Generated 0 of 1 mixed pair_coeff terms from geometric mixing rule
All restart file global fix info was re-assigned
Neighbor list info ...
  update: every = 1 steps, delay = 25 steps, check = yes
  max neighbors/atom: 2000, page size: 100000
  master list distance cutoff = 3
  ghost atom cutoff = 3
  binsize = 1.5, bins = 5 5 5
  1 neighbor lists, perpetual/occasional/extra = 1 0 0
  (1) pair lj/cut, perpetual
      attributes: half, newton on
      pair build: half/bin/atomonly/newton
      stencil: half/bin/3d
      bin: standard
Per MPI rank memory allocation (min/avg/max) = 3.961 | 3.961 | 3.961 Mbytes
   Step          Temp          E_pair         E_mol          TotEng         Press     
         0   0.8           -6.1498362      0             -4.9531695      8.8700779    
      5000   0.74696115    -6.3591491      0             -5.2418197      7.4378893    
     10000   0.78656422    -6.4224145      0             -5.2458455      7.1343298    
     15000   0.79393532    -6.248084       0             -5.0604891      8.2916023    
     20000   0.75211189    -6.3919082      0             -5.2668742      7.384766     
     25000   0.73712653    -6.3204482      0             -5.2178298      7.4781068    
     30000   0.79332243    -6.3489364      0             -5.1622582      7.71942      
     35000   0.78550694    -6.2542329      0             -5.0792454      8.152846     
     40000   0.75340847    -6.3411608      0             -5.2141873      7.5684321    
     45000   0.80018888    -6.4000926      0             -5.2031434      7.3795864    
     50000   0.7934862     -6.3015625      0             -5.1146394      8.1405812    
     55000   0.7669987     -6.408129       0             -5.2608267      7.2309989    
     60000   0.8199491     -6.3870138      0             -5.1605066      7.3861983    
     65000   0.82500869    -6.2977675      0             -5.063692       7.8862604    
     70000   0.78032435    -6.399627       0             -5.2323918      7.2729382    
     75000   0.78212442    -6.3027461      0             -5.1328183      7.8441362    
     80000   0.76700067    -6.2762957      0             -5.1289906      7.9454958    
     85000   0.78088108    -6.3056729      0             -5.1376049      7.8971998    
     90000   0.74205041    -6.3023166      0             -5.1923329      7.7819573    
     95000   0.8160397     -6.3827115      0             -5.1620521      7.3739154    
    100000   0.86442257    -6.2522382      0             -4.9592061      8.2540237    
    105000   0.8157675     -6.3657935      0             -5.1455413      7.3883938    
    110000   0.7976686     -6.3482137      0             -5.1550344      7.5487481    
    115000   0.77733346    -6.4237003      0             -5.260939       7.0814205    
    120000   0.81828772    -6.2485093      0             -5.0244872      8.354857     
    125000   0.77522353    -6.3560045      0             -5.1963993      7.4984085    
    130000   0.80391338    -6.3168233      0             -5.1143029      7.7714926    
    135000   0.77111147    -6.4027566      0             -5.2493023      7.33291      
    140000   0.82029658    -6.3083971      0             -5.0813701      7.9790314    
    145000   0.80157631    -6.2106767      0             -5.0116522      8.5863904    
    150000   0.83163238    -6.3268972      0             -5.0829137      7.6448683    
Loop time of 9.36626 on 64 procs for 150000 steps with 360 atoms

Performance: 2767378.566 tau/day, 16014.922 timesteps/s, 5.765 Matom-step/s
99.6% CPU use with 64 MPI tasks x 1 OpenMP threads

MPI task timing breakdown:
Section |  min time  |  avg time  |  max time  |%varavg| %total
---------------------------------------------------------------
Pair    | 0.34046    | 0.3632     | 0.39417    |   2.0 |  3.88
Neigh   | 0.051167   | 0.054188   | 0.058263   |   0.8 |  0.58
Comm    | 6.894      | 7.1233     | 7.3845     |   6.0 | 76.05
Output  | 0.0031492  | 0.0031805  | 0.0035554  |   0.1 |  0.03
Modify  | 1.0683     | 1.3704     | 1.6204     |  14.6 | 14.63
Other   |            | 0.452      |            |       |  4.83

Nlocal:          5.625 ave           8 max           3 min
Histogram: 3 0 6 0 16 0 29 0 7 3
Nghost:        532.578 ave         545 max         519 min
Histogram: 1 6 5 9 5 12 11 6 6 3
Neighs:        324.641 ave         518 max         168 min
Histogram: 4 3 6 8 18 13 8 2 1 1

Total # of neighbors = 20777
Ave neighs/atom = 57.713889
Neighbor list builds = 3589
Dangerous builds = 0
Total wall time: 0:00:09
