
include ${pot}.lmp
include kalj.lmp
units lj
atom_style atomic

variable dimensions equal 3
variable density equal 1.2
variable fraca equal 0.8

dimension ${dimensions}
dimension 3
read_restart ${prevbasename}.final.lmprestart.${prevsteps}
read_restart equil/kalj_T0.5_n360_v300_10000000_1.final.lmprestart.${prevsteps}
read_restart equil/kalj_T0.5_n360_v300_10000000_1.final.lmprestart.10000000
Reading restart file ...
  restart file = 15 Sep 2022, LAMMPS = 15 Sep 2022
  restoring atom style atomic from restart
  orthogonal box = (0 0 0) to (6.6943295 6.6943295 6.6943295)
  4 by 4 by 4 MPI processor grid
  restoring pair style lj/cut from restart
  360 atoms
  read_restart CPU = 0.010 seconds
include ${pot}_particles.lmp
include kalj_particles.lmp
mass * 1.0 #  set mass 1.0 for all types

pair_style lj/cut 2.5
#pair coeffs type1 type2 eps sigma
pair_coeff 1 1 1.0 1.00 2.5
pair_coeff 1 2 1.5 0.80 2.0
pair_coeff 2 2 0.5 0.88 2.2
pair_modify shift yes
reset_timestep 0

print "Setting up annealing run"
Setting up annealing run
dump 1 all atom ${dumptime} ${basename}.lammpstrj
dump 1 all atom 3000000 ${basename}.lammpstrj
dump 1 all atom 3000000 equil/kalj_T0.475_n360_v300_30000000_1.lammpstrj
#dump_modify 1 sort id scale no

restart ${restarttime} ${basename}.restart
restart 30000000 ${basename}.restart
restart 30000000 equil/kalj_T0.475_n360_v300_30000000_1.restart
restart ${steps} ${basename}.final.lmprestart
restart 30000000 ${basename}.final.lmprestart
restart 30000000 equil/kalj_T0.475_n360_v300_30000000_1.final.lmprestart

thermo ${thermotime}
thermo 300000
timestep ${timestep}
timestep 0.003

neighbor 0.5 bin
neigh_modify every 1 delay ${neighborstep} check yes
neigh_modify every 1 delay 25 check yes

velocity all create ${temp} ${id} dist gaussian
velocity all create 0.475 ${id} dist gaussian
velocity all create 0.475 1 dist gaussian
fix 1 all nvt temp ${temp} ${temp} ${taut}
fix 1 all nvt temp 0.475 ${temp} ${taut}
fix 1 all nvt temp 0.475 0.475 ${taut}
fix 1 all nvt temp 0.475 0.475 0.3
Resetting global fix info from restart file:
  fix style: nvt, fix ID: 1
run ${steps}
run 30000000
Generated 0 of 1 mixed pair_coeff terms from geometric mixing rule
All restart file global fix info was re-assigned
Neighbor list info ...
  update: every = 1 steps, delay = 25 steps, check = yes
  max neighbors/atom: 2000, page size: 100000
  master list distance cutoff = 3
  ghost atom cutoff = 3
  binsize = 1.5, bins = 5 5 5
  1 neighbor lists, perpetual/occasional/extra = 1 0 0
  (1) pair lj/cut, perpetual
      attributes: half, newton on
      pair build: half/bin/atomonly/newton
      stencil: half/bin/3d
      bin: standard
Per MPI rank memory allocation (min/avg/max) = 3.961 | 3.961 | 3.961 Mbytes
   Step          Temp          E_pair         E_mol          TotEng         Press     
         0   0.475         -6.8903085      0             -6.1797877      3.8505227    
    300000   0.47733178    -6.9431923      0             -6.2291835      3.5255843    
    600000   0.44434841    -6.9379656      0             -6.2732944      3.4218361    
    900000   0.4636159     -6.9545672      0             -6.2610751      3.4823524    
   1200000   0.47202509    -6.953984       0             -6.2479132      3.4338441    
   1500000   0.46292551    -7.0266608      0             -6.3342014      2.957891     
   1800000   0.47097295    -6.9127889      0             -6.2082919      3.5096624    
   2100000   0.50789143    -6.896164       0             -6.1364431      3.7777285    
   2400000   0.4964065     -6.9923959      0             -6.2498545      3.129456     
   2700000   0.45109237    -6.9372774      0             -6.2625184      3.5084454    
   3000000   0.45016645    -6.9370671      0             -6.2636931      3.5246263    
   3300000   0.44177859    -6.9348068      0             -6.2739797      3.6227429    
   3600000   0.48306167    -6.9642991      0             -6.2417193      3.3491376    
   3900000   0.44453075    -6.9475619      0             -6.282618       3.6199429    
   4200000   0.48797027    -6.9310254      0             -6.2011032      3.6355989    
   4500000   0.48137003    -6.8956955      0             -6.1756462      3.8012769    
   4800000   0.49110642    -6.9969771      0             -6.2623637      3.2191347    
   5100000   0.45833251    -6.9561569      0             -6.2705678      3.326787     
   5400000   0.4948655     -6.9855974      0             -6.2453611      3.2926415    
   5700000   0.43357936    -6.9614424      0             -6.31288        3.2704297    
   6000000   0.47053281    -6.9414898      0             -6.2376512      3.6285064    
   6300000   0.47335489    -6.9533786      0             -6.2453186      3.3919856    
   6600000   0.44605031    -6.9531686      0             -6.2859517      3.3732227    
   6900000   0.53202519    -6.9516954      0             -6.1558744      3.4236507    
   7200000   0.45141591    -6.984599       0             -6.3093561      3.2623799    
   7500000   0.44893852    -6.9512342      0             -6.279697       3.3621349    
   7800000   0.48803882    -6.9745476      0             -6.2445229      3.3762928    
   8100000   0.45875132    -6.9925126      0             -6.3062971      3.3474621    
   8400000   0.47681328    -6.9977412      0             -6.284508       3.0469595    
   8700000   0.50888458    -6.9515814      0             -6.1903749      3.4300272    
   9000000   0.48729939    -6.9717504      0             -6.2428317      3.3678336    
   9300000   0.49840693    -6.9731806      0             -6.227647       3.3570516    
   9600000   0.45518763    -6.9977544      0             -6.3168695      2.9999407    
   9900000   0.48940178    -6.9731477      0             -6.2410842      3.3144548    
  10200000   0.46320739    -7.0086006      0             -6.3157195      3.1099489    
  10500000   0.49237015    -7.0139643      0             -6.2774607      3.0724575    
  10800000   0.49280071    -7.0071151      0             -6.2699673      3.1363785    
  11100000   0.4950976     -6.994527       0             -6.2539435      3.2874238    
  11400000   0.46176299    -6.9412715      0             -6.250551       3.4328433    
  11700000   0.50057875    -6.9777519      0             -6.2289695      3.3857914    
  12000000   0.5018632     -7.0423719      0             -6.2916682      3.0696923    
  12300000   0.44140621    -6.9819892      0             -6.3217191      3.4390894    
  12600000   0.51314112    -7.0064401      0             -6.2388665      3.36918      
  12900000   0.46238928    -6.9672679      0             -6.2756106      3.4195339    
  13200000   0.4837304     -7.0006125      0             -6.2770325      3.2730092    
  13500000   0.46949521    -6.946025       0             -6.2437384      3.4082753    
  13800000   0.49019503    -6.9537295      0             -6.2204794      3.4874186    
  14100000   0.45177224    -6.968195       0             -6.2924191      3.3425136    
  14400000   0.50376838    -6.9280837      0             -6.1745301      3.708297     
  14700000   0.46245359    -6.9611706      0             -6.2694171      3.3409018    
  15000000   0.4904367     -6.9721194      0             -6.2385079      3.4463883    
  15300000   0.48296926    -6.991726       0             -6.2692845      3.3019409    
  15600000   0.43438539    -6.9121156      0             -6.2623475      3.6975772    
  15900000   0.4936803     -6.848372       0             -6.1099085      4.1686324    
  16200000   0.46652272    -6.9636188      0             -6.2657785      3.3904764    
  16500000   0.50028714    -7.0119448      0             -6.2635987      3.0478099    
  16800000   0.43613393    -7.0057378      0             -6.3533541      3.0413183    
  17100000   0.44324211    -7.00513        0             -6.3421137      3.1763692    
  17400000   0.46403403    -6.9716055      0             -6.2774879      3.3055958    
  17700000   0.4595425     -6.9082449      0             -6.2208459      3.7659601    
  18000000   0.44122176    -6.9475343      0             -6.2875401      3.3397423    
  18300000   0.46111694    -6.9933927      0             -6.3036386      3.2327134    
  18600000   0.45968172    -7.0174516      0             -6.3298444      3.0375608    
  18900000   0.49427832    -6.9847497      0             -6.2453917      3.2623041    
  19200000   0.46200138    -6.9367867      0             -6.2457096      3.5102229    
  19500000   0.5038052     -7.0683594      0             -6.3147508      2.7442116    
  19800000   0.48080445    -6.9709058      0             -6.2517024      3.3918973    
  20100000   0.44588445    -7.0215367      0             -6.3545679      2.9886793    
  20400000   0.45950192    -6.9561128      0             -6.2687745      3.2734484    
  20700000   0.52383521    -6.897501       0             -6.1139308      3.9760223    
  21000000   0.46448576    -6.9204585      0             -6.2256652      3.7265253    
  21300000   0.47326705    -6.9382869      0             -6.2303583      3.5702516    
  21600000   0.47140658    -6.9970148      0             -6.2918692      3.1314696    
  21900000   0.4848916     -6.9865232      0             -6.2612062      3.1964137    
  22200000   0.47814843    -6.9711403      0             -6.2559099      3.4038196    
  22500000   0.51646148    -6.9441424      0             -6.1716021      3.6749751    
  22800000   0.52490218    -6.9385708      0             -6.1534046      3.5759286    
  23100000   0.47977085    -6.92512        0             -6.2074627      3.6466474    
  23400000   0.49458283    -6.9424122      0             -6.2025987      3.6247746    
  23700000   0.4641214     -6.9510268      0             -6.2567785      3.3584093    
  24000000   0.47248604    -6.9758049      0             -6.2690445      3.2853388    
  24300000   0.45977332    -7.0007475      0             -6.3130033      3.061436     
  24600000   0.47350052    -6.9448251      0             -6.2365472      3.4655609    
  24900000   0.46830349    -6.8917951      0             -6.1912911      3.6827421    
  25200000   0.46691654    -6.9626176      0             -6.2641883      3.5326672    
  25500000   0.47783804    -6.9732141      0             -6.258448       3.4837134    
  25800000   0.44277496    -6.9613195      0             -6.299002       3.3584432    
  26100000   0.48715815    -6.9459595      0             -6.2172521      3.5777424    
  26400000   0.52032791    -6.9262935      0             -6.1479697      3.7471747    
  26700000   0.45696429    -6.983429       0             -6.2998866      3.2536839    
  27000000   0.48044686    -6.9668463      0             -6.2481779      3.3137841    
  27300000   0.44791361    -7.0364979      0             -6.3664938      2.7879083    
  27600000   0.46666552    -6.973014       0             -6.2749601      3.402771     
  27900000   0.46824455    -6.9734956      0             -6.2730798      3.3936093    
  28200000   0.50094259    -6.9697495      0             -6.2204229      3.4339423    
  28500000   0.50776719    -7.0178039      0             -6.2582688      3.0776445    
  28800000   0.4830754     -6.9248857      0             -6.2022854      3.6657693    
  29100000   0.44202159    -6.982158       0             -6.3209673      3.4327011    
  29400000   0.46493538    -6.9063639      0             -6.210898       3.7391385    
  29700000   0.47001158    -6.9493828      0             -6.2463238      3.498923     
  30000000   0.48143047    -6.9477261      0             -6.2275864      3.4486723    
Loop time of 1839.51 on 64 procs for 30000000 steps with 360 atoms

Performance: 4227215.755 tau/day, 16308.703 timesteps/s, 5.871 Matom-step/s
99.7% CPU use with 64 MPI tasks x 1 OpenMP threads

MPI task timing breakdown:
Section |  min time  |  avg time  |  max time  |%varavg| %total
---------------------------------------------------------------
Pair    | 68.866     | 73.167     | 84.472     |  30.5 |  3.98
Neigh   | 10.814     | 11.516     | 12.147     |   9.0 |  0.63
Comm    | 1363.6     | 1408.2     | 1460.9     |  89.0 | 76.55
Output  | 0.010322   | 0.010406   | 0.012734   |   0.3 |  0.00
Modify  | 206.31     | 265.28     | 315.61     | 214.2 | 14.42
Other   |            | 81.33      |            |       |  4.42

Nlocal:          5.625 ave           8 max           3 min
Histogram: 1 0 8 0 19 0 23 0 12 1
Nghost:        541.734 ave         561 max         531 min
Histogram: 6 9 10 10 12 8 5 1 2 1
Neighs:        324.531 ave         464 max         163 min
Histogram: 1 2 3 11 11 8 14 10 1 3

Total # of neighbors = 20770
Ave neighs/atom = 57.694444
Neighbor list builds = 769795
Dangerous builds = 940
Total wall time: 0:30:39
